.Version 9.4.1 of ABINIT

 ABINIT is a project of the Universite Catholique de Louvain,
 Corning Inc. and other collaborators, see ~abinit/doc/developers/contributors.txt .
 acknowledgments of the ABINIT effort.

.Starting date : Sat  3 Jul 2021.
- ( at 08h22 )

- input  file    -> PATH8
- output file    -> PATH8.abo
- root for input  files -> i
- root for output files -> o

 Symmetries : space group Pc c 2 (# 27); Bravais oP (primitive ortho.)
     intxc =       0    ionmov =       0      iscf =       7    lmnmax =       8
     lnmax =       8     mgfft =      45  mpssoang =       4    mqgrid =    3001
     natom =      12  nloc_mem =       1    nspden =       1   nspinor =       1
    nsppol =       1      nsym =       2    n1xccc =    2501    ntypat =       2
    occopt =       1   xclevel =       2
-    mband =          50        mffmem =           1         mkmem =           4
       mpw =        5280          nfft =       91125          nkpt =         112
  Rough estimation (10% accuracy) of disk space for files :

------------- Echo of variables that govern the present computation ------------
-
- outvars: echo of selected default values
-   iomode0 =  3 , fftalg0 =512 , wfoptalg0 =  0
-
- outvars: echo of global parameters not present in the input file
-  max_nthreads =    0
-
 -outvars: echo values of preprocessed input variables --------
            acell      9.5914334888E+00  9.5914334888E+00  9.5914334888E+00 Bohr
              amu      1.78490000E+02  1.59994000E+01
          chkprim           0
             ecut      2.50000000E+01 Hartree
           ecutsm      5.00000000E-01 Hartree
-          fftalg         512
           istwfk        2    0    0    3    0    0    0    0    0    0
                         0    0    0    0    0    0    6    0    0    7
                         0    0    0    0    0    0    0    0    0    0
                         0    0    0    0    0    0    0    0    0    0
                         0    0    0    0    0    0    0    0    0    0
                       outvar_i_n : Printing only first  50 k-points.
              ixc          11
              kpt      0.00000000E+00  0.00000000E+00  0.00000000E+00
                       1.66666667E-01  0.00000000E+00  0.00000000E+00
                       3.33333333E-01  0.00000000E+00  0.00000000E+00
                       5.00000000E-01  0.00000000E+00  0.00000000E+00
                       0.00000000E+00  1.66666667E-01  0.00000000E+00
                       1.66666667E-01  1.66666667E-01  0.00000000E+00
                       3.33333333E-01  1.66666667E-01  0.00000000E+00
                       5.00000000E-01  1.66666667E-01  0.00000000E+00
                      -3.33333333E-01  1.66666667E-01  0.00000000E+00
                      -1.66666667E-01  1.66666667E-01  0.00000000E+00
                       0.00000000E+00  3.33333333E-01  0.00000000E+00
                       1.66666667E-01  3.33333333E-01  0.00000000E+00
                       3.33333333E-01  3.33333333E-01  0.00000000E+00
                       5.00000000E-01  3.33333333E-01  0.00000000E+00
                      -3.33333333E-01  3.33333333E-01  0.00000000E+00
                      -1.66666667E-01  3.33333333E-01  0.00000000E+00
                       0.00000000E+00  5.00000000E-01  0.00000000E+00
                       1.66666667E-01  5.00000000E-01  0.00000000E+00
                       3.33333333E-01  5.00000000E-01  0.00000000E+00
                       5.00000000E-01  5.00000000E-01  0.00000000E+00
                       0.00000000E+00  0.00000000E+00  1.66666667E-01
                       1.66666667E-01  0.00000000E+00  1.66666667E-01
                       3.33333333E-01  0.00000000E+00  1.66666667E-01
                       5.00000000E-01  0.00000000E+00  1.66666667E-01
                      -3.33333333E-01  0.00000000E+00  1.66666667E-01
                      -1.66666667E-01  0.00000000E+00  1.66666667E-01
                       0.00000000E+00  1.66666667E-01  1.66666667E-01
                       1.66666667E-01  1.66666667E-01  1.66666667E-01
                       3.33333333E-01  1.66666667E-01  1.66666667E-01
                       5.00000000E-01  1.66666667E-01  1.66666667E-01
                      -3.33333333E-01  1.66666667E-01  1.66666667E-01
                      -1.66666667E-01  1.66666667E-01  1.66666667E-01
                       0.00000000E+00  3.33333333E-01  1.66666667E-01
                       1.66666667E-01  3.33333333E-01  1.66666667E-01
                       3.33333333E-01  3.33333333E-01  1.66666667E-01
                       5.00000000E-01  3.33333333E-01  1.66666667E-01
                      -3.33333333E-01  3.33333333E-01  1.66666667E-01
                      -1.66666667E-01  3.33333333E-01  1.66666667E-01
                       0.00000000E+00  5.00000000E-01  1.66666667E-01
                       1.66666667E-01  5.00000000E-01  1.66666667E-01
                       3.33333333E-01  5.00000000E-01  1.66666667E-01
                       5.00000000E-01  5.00000000E-01  1.66666667E-01
                      -3.33333333E-01  5.00000000E-01  1.66666667E-01
                      -1.66666667E-01  5.00000000E-01  1.66666667E-01
                       0.00000000E+00 -3.33333333E-01  1.66666667E-01
                       1.66666667E-01 -3.33333333E-01  1.66666667E-01
                       3.33333333E-01 -3.33333333E-01  1.66666667E-01
                       5.00000000E-01 -3.33333333E-01  1.66666667E-01
                      -3.33333333E-01 -3.33333333E-01  1.66666667E-01
                      -1.66666667E-01 -3.33333333E-01  1.66666667E-01
                       outvar_i_n : Printing only first  50 k-points.
           kptopt           2
         kptrlatt        6    0    0      0    6    0      0    0    6
          kptrlen      5.75486009E+01
P           mkmem           4
            natom          12
            nband          50
            ngfft          45      45      45
             nkpt         112
            nstep         100
             nsym           2
           ntypat           2
              occ      2.000000  2.000000  2.000000  2.000000  2.000000  2.000000
                       2.000000  2.000000  2.000000  2.000000  2.000000  2.000000
                       2.000000  2.000000  2.000000  2.000000  2.000000  2.000000
                       2.000000  2.000000  2.000000  2.000000  2.000000  2.000000
                       2.000000  2.000000  2.000000  2.000000  2.000000  2.000000
                       2.000000  2.000000  2.000000  2.000000  2.000000  2.000000
                       2.000000  2.000000  2.000000  2.000000  2.000000  2.000000
                       2.000000  2.000000  2.000000  2.000000  2.000000  2.000000
                       0.000000  0.000000
        pawecutdg      2.50000000E+01 Hartree
         pawxcdev           0
          spgroup          27
        symmorphi           0
           symrel      1  0  0   0  1  0   0  0  1      -1  0  0   0  1  0   0  0 -1
           tolmxf      1.00000000E-05
           tolvrs      1.00000000E-18
           tsmear      4.00000000E-02 Hartree
            typat      1  1  1  1  2  2  2  2  2  2  2  2
              wtk        0.00463    0.00926    0.00926    0.00463    0.00926    0.00926
                         0.00926    0.00926    0.00926    0.00926    0.00926    0.00926
                         0.00926    0.00926    0.00926    0.00926    0.00463    0.00926
                         0.00926    0.00463    0.00926    0.00926    0.00926    0.00926
                         0.00926    0.00926    0.00926    0.00926    0.00926    0.00926
                         0.00926    0.00926    0.00926    0.00926    0.00926    0.00926
                         0.00926    0.00926    0.00926    0.00926    0.00926    0.00926
                         0.00926    0.00926    0.00926    0.00926    0.00926    0.00926
                         0.00926    0.00926
                       outvars : Printing only first  50 k-points.
           xangst      0.0000000000E+00  1.1458754584E-02  0.0000000000E+00
                       0.0000000000E+00  2.5492470181E+00  2.5377840000E+00
                       2.5377840000E+00  1.1458754584E-02  2.5377840000E+00
                       2.5377840000E+00  2.5492470181E+00  0.0000000000E+00
                       1.2180013606E+00  1.2143133007E+00  3.5557467193E+00
                       1.2179392865E+00  3.7520973007E+00  4.0575819077E+00
                       1.3198447135E+00  3.7520973007E+00  1.5197979077E+00
                       1.3197826394E+00  1.2143133007E+00  1.0179627193E+00
                       3.8575666394E+00  1.2143133007E+00  1.5198212807E+00
                       3.8576287135E+00  3.7520973007E+00  1.0179860923E+00
                       3.7557232865E+00  3.7520973007E+00  3.5557700923E+00
                       3.7557853606E+00  1.2143133007E+00  4.0576052807E+00
            xcart      0.0000000000E+00  2.1653907987E-02  0.0000000000E+00
                       0.0000000000E+00  4.8173787092E+00  4.7957167444E+00
                       4.7957167444E+00  2.1653907987E-02  4.7957167444E+00
                       4.7957167444E+00  4.8173787092E+00  0.0000000000E+00
                       2.3016890011E+00  2.2947195778E+00  6.7193874975E+00
                       2.3015716979E+00  7.0904363222E+00  7.6677185672E+00
                       2.4941450465E+00  7.0904363222E+00  2.8720018228E+00
                       2.4940277433E+00  2.2947195778E+00  1.9236707530E+00
                       7.2897444877E+00  2.2947195778E+00  2.8720459914E+00
                       7.2898617910E+00  7.0904363222E+00  1.9237149216E+00
                       7.0972884423E+00  7.0904363222E+00  6.7194316660E+00
                       7.0974057455E+00  2.2947195778E+00  7.6677627358E+00
             xred      0.0000000000E+00  2.2576300000E-03  0.0000000000E+00
                       0.0000000000E+00  5.0225847000E-01  5.0000000000E-01
                       5.0000000000E-01  2.2576300000E-03  5.0000000000E-01
                       5.0000000000E-01  5.0225847000E-01  0.0000000000E+00
                       2.3997341000E-01  2.3924678000E-01  7.0056134000E-01
                       2.3996118000E-01  7.3924678000E-01  7.9943405500E-01
                       2.6003882000E-01  7.3924678000E-01  2.9943405500E-01
                       2.6002659000E-01  2.3924678000E-01  2.0056134000E-01
                       7.6002659000E-01  2.3924678000E-01  2.9943866000E-01
                       7.6003882000E-01  7.3924678000E-01  2.0056594500E-01
                       7.3996118000E-01  7.3924678000E-01  7.0056594500E-01
                       7.3997341000E-01  2.3924678000E-01  7.9943866000E-01
            znucl       72.00000    8.00000

 chkinp: Checking input parameters for consistency.

== DATASET  1 ==================================================================
-   mpi_nproc: 36, omp_nthreads: -1 (-1 if OMP is not activated)
-    --> not optimal distribution: autoparal keyword recommended in input file <--

--- !DatasetInfo
iteration_state: {dtset: 1, }
dimensions: {natom: 12, nkpt: 112, mband: 50, nsppol: 1, nspinor: 1, nspden: 1, mpw: 5280, }
[...]
       0.760038820000      0.739246780000      0.200565945000
       0.739961180000      0.739246780000      0.700565945000
       0.739973410000      0.239246780000      0.799438660000
 rms dE/dt=  6.6128E-03; max dE/dt=  1.6208E-02; dE/dt below (all hartree)
    1       0.000000000000      0.016201611322      0.000000000000
    2       0.000000000000      0.016180590607      0.000000000000
    3       0.000000000000      0.016207559759      0.000000000000
    4       0.000000000000      0.016206386448      0.000000000000
    5       0.000295952911     -0.008182928039      0.000244273383
    6       0.000283409647     -0.008027458190     -0.000309504511
    7      -0.000385833786     -0.007975563139     -0.000257583143
    8      -0.000378252723     -0.008156518783      0.000292536073
    9      -0.000295952911     -0.008182928039     -0.000244273383
   10      -0.000283409647     -0.008027458190      0.000309504511
   11       0.000385833786     -0.007975563139      0.000257583143
   12       0.000378252723     -0.008156518783     -0.000292536073

 cartesian coordinates (angstrom) at end:
    1      0.00000000000000     0.01145875458384     0.00000000000000
    2      0.00000000000000     2.54924701806096     2.53778400000000
    3      2.53778400000000     0.01145875458384     2.53778400000000
    4      2.53778400000000     2.54924701806096     0.00000000000000
    5      1.21800136064688     1.21431330067104     3.55574671934112
    6      1.21793928645024     3.75209730067104     4.05758190766824
    7      1.31984471354976     3.75209730067104     1.51979790766824
    8      1.31978263935312     1.21431330067104     1.01796271934112
    9      3.85756663935312     1.21431330067104     1.51982128065888
   10      3.85762871354976     3.75209730067104     1.01798609233176
   11      3.75572328645024     3.75209730067104     3.55577009233176
   12      3.75578536064688     1.21431330067104     4.05760528065888

 cartesian forces (hartree/bohr) at end:
    1      0.00000000000000    -0.00168820893022    -0.00000000000000
    2      0.00000000000000    -0.00168601731665    -0.00000000000000
    3      0.00000000000000    -0.00168882911247    -0.00000000000000
    4      0.00000000000000    -0.00168870678339    -0.00000000000000
    5     -0.00003085596238     0.00085411588389    -0.00002546787018
    6     -0.00002954820540     0.00083790664366     0.00003226884820
    7      0.00004022691570     0.00083249608109     0.00002685554182
    8      0.00003943651625     0.00085136246272    -0.00003049972389
    9      0.00003085596238     0.00085411588389     0.00002546787018
   10      0.00002954820540     0.00083790664366    -0.00003226884820
   11     -0.00004022691570     0.00083249608109    -0.00002685554182
   12     -0.00003943651625     0.00085136246272     0.00003049972389
 frms,max,avg= 6.8944818E-04 1.6888291E-03   0.000E+00 -9.662E-07  0.000E+00 h/b

 cartesian forces (eV/Angstrom) at end:
    1      0.00000000000000    -0.08681118629139    -0.00000000000000
    2      0.00000000000000    -0.08669848900019    -0.00000000000000
    3      0.00000000000000    -0.08684307734216    -0.00000000000000
    4      0.00000000000000    -0.08683678692854    -0.00000000000000
    5     -0.00158667724732     0.04392040095496    -0.00130961042975
    6     -0.00151942968533     0.04308688837956     0.00165933075135
    7      0.00206855100113     0.04280866608928     0.00138096736850
    8      0.00202790703059     0.04377881435734    -0.00156835872903
    9      0.00158667724732     0.04392040095496     0.00130961042975
   10      0.00151942968533     0.04308688837956    -0.00165933075135
   11     -0.00206855100113     0.04280866608928    -0.00138096736850
   12     -0.00202790703059     0.04377881435734     0.00156835872903
 frms,max,avg= 3.5452848E-02 8.6843077E-02   0.000E+00 -4.969E-05  0.000E+00 e/A
 length scales=  9.591433488838  9.591433488838  9.591433488838 bohr
              =  5.075568000000  5.075568000000  5.075568000000 angstroms
 prteigrs : about to open file o_EIG
 Fermi (or HOMO) energy (hartree) =   0.27685   Average Vxc (hartree)=  -0.44598
 Eigenvalues (hartree) for nkpt= 112  k points:
 kpt#   1, nband= 50, wtk=  0.00463, kpt=  0.0000  0.0000  0.0000 (reduced coord)
  -1.94336   -1.94270   -1.94267   -1.94267   -0.80512   -0.80507   -0.80476   -0.79349
  -0.79296   -0.79263   -0.79215   -0.79145   -0.79132   -0.78833   -0.78680   -0.78679
  -0.39514   -0.33823   -0.32947   -0.32885   -0.31890   -0.31618   -0.31566   -0.29779
   0.06047    0.06063    0.07201    0.09593    0.10294    0.10342    0.16171    0.16393
   0.16651    0.16868    0.17233    0.17238    0.22066    0.22394    0.22556    0.22891
   0.24646    0.25240    0.25398    0.25483    0.25530    0.26594    0.26839    0.27517
   0.44460    0.44577
 prteigrs : prtvol=0 or 1, do not print more k-points.

--- !EnergyTerms
iteration_state     : {dtset: 1, }
comment             : Components of total free energy in Hartree
kinetic             :  1.46219727444299E+02
hartree             :  5.59689964093946E+01
xc                  : -9.09102109494708E+01
Ewald energy        : -2.70104184683959E+02
psp_core            :  1.49595106529080E+01
local_psp           : -2.05651388817796E+02
non_local_psp       : -9.11632459631890E+00
total_energy        : -3.58633874540942E+02
total_energy_eV     : -9.75892402533267E+03
band_energy         : -3.11065115090677E+01
...

 Cartesian components of stress tensor (hartree/bohr^3)
  sigma(1 1)= -1.82227820E-04  sigma(3 2)=  0.00000000E+00
  sigma(2 2)= -1.86773224E-04  sigma(3 1)= -2.85385857E-09
  sigma(3 3)= -4.83440764E-04  sigma(2 1)=  0.00000000E+00

-Cartesian components of stress tensor (GPa)         [Pressure=  8.3599E+00 GPa]
- sigma(1 1)= -5.36132665E+00  sigma(3 2)=  0.00000000E+00
- sigma(2 2)= -5.49505705E+00  sigma(3 1)= -8.39634040E-05
- sigma(3 3)= -1.42233159E+01  sigma(2 1)=  0.00000000E+00

== END DATASET(S) ==============================================================

 -outvars: echo values of variables after computation  --------
            acell      9.5914334888E+00  9.5914334888E+00  9.5914334888E+00 Bohr
              amu      1.78490000E+02  1.59994000E+01
          chkprim           0
             ecut      2.50000000E+01 Hartree
           ecutsm      5.00000000E-01 Hartree
           etotal     -3.5863387454E+02
            fcart      5.6468863150E-22 -1.6882089302E-03 -2.8234431575E-22
                       5.6468863150E-22 -1.6860173167E-03 -2.8234431575E-22
                       5.6468863150E-22 -1.6888291125E-03 -2.8234431575E-22
                       5.6468863150E-22 -1.6887067834E-03 -2.8234431575E-22
                      -3.0855962379E-05  8.5411588389E-04 -2.5467870180E-05
                      -2.9548205401E-05  8.3790664366E-04  3.2268848201E-05
                       4.0226915700E-05  8.3249608109E-04  2.6855541819E-05
                       3.9436516248E-05  8.5136246272E-04 -3.0499723886E-05
                       3.0855962379E-05  8.5411588389E-04  2.5467870180E-05
                       2.9548205401E-05  8.3790664366E-04 -3.2268848201E-05
                      -4.0226915700E-05  8.3249608109E-04 -2.6855541819E-05
                      -3.9436516248E-05  8.5136246272E-04  3.0499723886E-05
-          fftalg         512
           istwfk        2    0    0    3    0    0    0    0    0    0
                         0    0    0    0    0    0    6    0    0    7
                         0    0    0    0    0    0    0    0    0    0
                         0    0    0    0    0    0    0    0    0    0
                         0    0    0    0    0    0    0    0    0    0
                       outvar_i_n : Printing only first  50 k-points.
              ixc          11
              kpt      0.00000000E+00  0.00000000E+00  0.00000000E+00
                       1.66666667E-01  0.00000000E+00  0.00000000E+00
                       3.33333333E-01  0.00000000E+00  0.00000000E+00
                       5.00000000E-01  0.00000000E+00  0.00000000E+00
                       0.00000000E+00  1.66666667E-01  0.00000000E+00
                       1.66666667E-01  1.66666667E-01  0.00000000E+00
                       3.33333333E-01  1.66666667E-01  0.00000000E+00
                       5.00000000E-01  1.66666667E-01  0.00000000E+00
                      -3.33333333E-01  1.66666667E-01  0.00000000E+00
                      -1.66666667E-01  1.66666667E-01  0.00000000E+00
                       0.00000000E+00  3.33333333E-01  0.00000000E+00
                       1.66666667E-01  3.33333333E-01  0.00000000E+00
                       3.33333333E-01  3.33333333E-01  0.00000000E+00
                       5.00000000E-01  3.33333333E-01  0.00000000E+00
                      -3.33333333E-01  3.33333333E-01  0.00000000E+00
                      -1.66666667E-01  3.33333333E-01  0.00000000E+00
                       0.00000000E+00  5.00000000E-01  0.00000000E+00
                       1.66666667E-01  5.00000000E-01  0.00000000E+00
                       3.33333333E-01  5.00000000E-01  0.00000000E+00
                       5.00000000E-01  5.00000000E-01  0.00000000E+00
                       0.00000000E+00  0.00000000E+00  1.66666667E-01
                       1.66666667E-01  0.00000000E+00  1.66666667E-01
                       3.33333333E-01  0.00000000E+00  1.66666667E-01
                       5.00000000E-01  0.00000000E+00  1.66666667E-01
                      -3.33333333E-01  0.00000000E+00  1.66666667E-01
                      -1.66666667E-01  0.00000000E+00  1.66666667E-01
                       0.00000000E+00  1.66666667E-01  1.66666667E-01
                       1.66666667E-01  1.66666667E-01  1.66666667E-01
                       3.33333333E-01  1.66666667E-01  1.66666667E-01
                       5.00000000E-01  1.66666667E-01  1.66666667E-01
                      -3.33333333E-01  1.66666667E-01  1.66666667E-01
                      -1.66666667E-01  1.66666667E-01  1.66666667E-01
                       0.00000000E+00  3.33333333E-01  1.66666667E-01
                       1.66666667E-01  3.33333333E-01  1.66666667E-01
                       3.33333333E-01  3.33333333E-01  1.66666667E-01
                       5.00000000E-01  3.33333333E-01  1.66666667E-01
                      -3.33333333E-01  3.33333333E-01  1.66666667E-01
                      -1.66666667E-01  3.33333333E-01  1.66666667E-01
                       0.00000000E+00  5.00000000E-01  1.66666667E-01
                       1.66666667E-01  5.00000000E-01  1.66666667E-01
                       3.33333333E-01  5.00000000E-01  1.66666667E-01
                       5.00000000E-01  5.00000000E-01  1.66666667E-01
                      -3.33333333E-01  5.00000000E-01  1.66666667E-01
                      -1.66666667E-01  5.00000000E-01  1.66666667E-01
                       0.00000000E+00 -3.33333333E-01  1.66666667E-01
                       1.66666667E-01 -3.33333333E-01  1.66666667E-01
                       3.33333333E-01 -3.33333333E-01  1.66666667E-01
                       5.00000000E-01 -3.33333333E-01  1.66666667E-01
                      -3.33333333E-01 -3.33333333E-01  1.66666667E-01
                      -1.66666667E-01 -3.33333333E-01  1.66666667E-01
                       outvar_i_n : Printing only first  50 k-points.
           kptopt           2
         kptrlatt        6    0    0      0    6    0      0    0    6
          kptrlen      5.75486009E+01
P           mkmem           4
            natom          12
            nband          50
            ngfft          45      45      45
             nkpt         112
            nstep         100
             nsym           2
           ntypat           2
              occ      2.000000  2.000000  2.000000  2.000000  2.000000  2.000000
                       2.000000  2.000000  2.000000  2.000000  2.000000  2.000000
                       2.000000  2.000000  2.000000  2.000000  2.000000  2.000000
                       2.000000  2.000000  2.000000  2.000000  2.000000  2.000000
                       2.000000  2.000000  2.000000  2.000000  2.000000  2.000000
                       2.000000  2.000000  2.000000  2.000000  2.000000  2.000000
                       2.000000  2.000000  2.000000  2.000000  2.000000  2.000000
                       2.000000  2.000000  2.000000  2.000000  2.000000  2.000000
                       0.000000  0.000000
        pawecutdg      2.50000000E+01 Hartree
         pawxcdev           0
          spgroup          27
           strten     -1.8222781964E-04 -1.8677322431E-04 -4.8344076398E-04
                       0.0000000000E+00 -2.8538585749E-09  0.0000000000E+00
        symmorphi           0
           symrel      1  0  0   0  1  0   0  0  1      -1  0  0   0  1  0   0  0 -1
           tolmxf      1.00000000E-05
           tolvrs      1.00000000E-18
           tsmear      4.00000000E-02 Hartree
            typat      1  1  1  1  2  2  2  2  2  2  2  2
              wtk        0.00463    0.00926    0.00926    0.00463    0.00926    0.00926
                         0.00926    0.00926    0.00926    0.00926    0.00926    0.00926
                         0.00926    0.00926    0.00926    0.00926    0.00463    0.00926
                         0.00926    0.00463    0.00926    0.00926    0.00926    0.00926
                         0.00926    0.00926    0.00926    0.00926    0.00926    0.00926
                         0.00926    0.00926    0.00926    0.00926    0.00926    0.00926
                         0.00926    0.00926    0.00926    0.00926    0.00926    0.00926
                         0.00926    0.00926    0.00926    0.00926    0.00926    0.00926
                         0.00926    0.00926
                       outvars : Printing only first  50 k-points.
           xangst      0.0000000000E+00  1.1458754584E-02  0.0000000000E+00
                       0.0000000000E+00  2.5492470181E+00  2.5377840000E+00
                       2.5377840000E+00  1.1458754584E-02  2.5377840000E+00
                       2.5377840000E+00  2.5492470181E+00  0.0000000000E+00
                       1.2180013606E+00  1.2143133007E+00  3.5557467193E+00
                       1.2179392865E+00  3.7520973007E+00  4.0575819077E+00
                       1.3198447135E+00  3.7520973007E+00  1.5197979077E+00
                       1.3197826394E+00  1.2143133007E+00  1.0179627193E+00
                       3.8575666394E+00  1.2143133007E+00  1.5198212807E+00
                       3.8576287135E+00  3.7520973007E+00  1.0179860923E+00
                       3.7557232865E+00  3.7520973007E+00  3.5557700923E+00
                       3.7557853606E+00  1.2143133007E+00  4.0576052807E+00
            xcart      0.0000000000E+00  2.1653907987E-02  0.0000000000E+00
                       0.0000000000E+00  4.8173787092E+00  4.7957167444E+00
                       4.7957167444E+00  2.1653907987E-02  4.7957167444E+00
                       4.7957167444E+00  4.8173787092E+00  0.0000000000E+00
                       2.3016890011E+00  2.2947195778E+00  6.7193874975E+00
                       2.3015716979E+00  7.0904363222E+00  7.6677185672E+00
                       2.4941450465E+00  7.0904363222E+00  2.8720018228E+00
                       2.4940277433E+00  2.2947195778E+00  1.9236707530E+00
                       7.2897444877E+00  2.2947195778E+00  2.8720459914E+00
                       7.2898617910E+00  7.0904363222E+00  1.9237149216E+00
                       7.0972884423E+00  7.0904363222E+00  6.7194316660E+00
                       7.0974057455E+00  2.2947195778E+00  7.6677627358E+00
             xred      0.0000000000E+00  2.2576300000E-03  0.0000000000E+00
                       0.0000000000E+00  5.0225847000E-01  5.0000000000E-01
                       5.0000000000E-01  2.2576300000E-03  5.0000000000E-01
                       5.0000000000E-01  5.0225847000E-01  0.0000000000E+00
                       2.3997341000E-01  2.3924678000E-01  7.0056134000E-01
                       2.3996118000E-01  7.3924678000E-01  7.9943405500E-01
                       2.6003882000E-01  7.3924678000E-01  2.9943405500E-01
                       2.6002659000E-01  2.3924678000E-01  2.0056134000E-01
                       7.6002659000E-01  2.3924678000E-01  2.9943866000E-01
                       7.6003882000E-01  7.3924678000E-01  2.0056594500E-01
                       7.3996118000E-01  7.3924678000E-01  7.0056594500E-01
                       7.3997341000E-01  2.3924678000E-01  7.9943866000E-01
            znucl       72.00000    8.00000

- Timing analysis has been suppressed with timopt=0

 Suggested references for the acknowledgment of ABINIT usage.

 Calculation completed.
.Delivered   0 WARNINGs and   0 COMMENTs to log file.