.Version 9.4.1 of ABINIT

 ABINIT is a project of the Universite Catholique de Louvain,
 Corning Inc. and other collaborators, see ~abinit/doc/developers/contributors.txt .
 acknowledgments of the ABINIT effort.

.Starting date : Sat  3 Jul 2021.
- ( at 07h26 )

- input  file    -> PATH18
- output file    -> PATH18.abo
- root for input  files -> i
- root for output files -> o

 Symmetries : space group P1 (#  1); Bravais aP (primitive triclinic)
     intxc =       0    ionmov =       0      iscf =       7    lmnmax =       8
     lnmax =       8     mgfft =      45  mpssoang =       4    mqgrid =    3001
     natom =      12  nloc_mem =       1    nspden =       1   nspinor =       1
    nsppol =       1      nsym =       1    n1xccc =    2501    ntypat =       2
    occopt =       1   xclevel =       2
-    mband =          50        mffmem =           1         mkmem =           4
       mpw =        5280          nfft =       91125          nkpt =         112
  Rough estimation (10% accuracy) of disk space for files :

------------- Echo of variables that govern the present computation ------------
-
- outvars: echo of selected default values
-   iomode0 =  3 , fftalg0 =512 , wfoptalg0 =  0
-
- outvars: echo of global parameters not present in the input file
-  max_nthreads =    0
-
 -outvars: echo values of preprocessed input variables --------
            acell      9.5914334888E+00  9.5914334888E+00  9.5914334888E+00 Bohr
              amu      1.78490000E+02  1.59994000E+01
          chkprim           0
             ecut      2.50000000E+01 Hartree
           ecutsm      5.00000000E-01 Hartree
-          fftalg         512
           istwfk        2    0    0    3    0    0    0    0    0    0
                         0    0    0    0    0    0    6    0    0    7
                         0    0    0    0    0    0    0    0    0    0
                         0    0    0    0    0    0    0    0    0    0
                         0    0    0    0    0    0    0    0    0    0
                       outvar_i_n : Printing only first  50 k-points.
              ixc          11
              kpt      0.00000000E+00  0.00000000E+00  0.00000000E+00
                       1.66666667E-01  0.00000000E+00  0.00000000E+00
                       3.33333333E-01  0.00000000E+00  0.00000000E+00
                       5.00000000E-01  0.00000000E+00  0.00000000E+00
                       0.00000000E+00  1.66666667E-01  0.00000000E+00
                       1.66666667E-01  1.66666667E-01  0.00000000E+00
                       3.33333333E-01  1.66666667E-01  0.00000000E+00
                       5.00000000E-01  1.66666667E-01  0.00000000E+00
                      -3.33333333E-01  1.66666667E-01  0.00000000E+00
                      -1.66666667E-01  1.66666667E-01  0.00000000E+00
                       0.00000000E+00  3.33333333E-01  0.00000000E+00
                       1.66666667E-01  3.33333333E-01  0.00000000E+00
                       3.33333333E-01  3.33333333E-01  0.00000000E+00
                       5.00000000E-01  3.33333333E-01  0.00000000E+00
                      -3.33333333E-01  3.33333333E-01  0.00000000E+00
                      -1.66666667E-01  3.33333333E-01  0.00000000E+00
                       0.00000000E+00  5.00000000E-01  0.00000000E+00
                       1.66666667E-01  5.00000000E-01  0.00000000E+00
                       3.33333333E-01  5.00000000E-01  0.00000000E+00
                       5.00000000E-01  5.00000000E-01  0.00000000E+00
                       0.00000000E+00  0.00000000E+00  1.66666667E-01
                       1.66666667E-01  0.00000000E+00  1.66666667E-01
                       3.33333333E-01  0.00000000E+00  1.66666667E-01
                       5.00000000E-01  0.00000000E+00  1.66666667E-01
                      -3.33333333E-01  0.00000000E+00  1.66666667E-01
                      -1.66666667E-01  0.00000000E+00  1.66666667E-01
                       0.00000000E+00  1.66666667E-01  1.66666667E-01
                       1.66666667E-01  1.66666667E-01  1.66666667E-01
                       3.33333333E-01  1.66666667E-01  1.66666667E-01
                       5.00000000E-01  1.66666667E-01  1.66666667E-01
                      -3.33333333E-01  1.66666667E-01  1.66666667E-01
                      -1.66666667E-01  1.66666667E-01  1.66666667E-01
                       0.00000000E+00  3.33333333E-01  1.66666667E-01
                       1.66666667E-01  3.33333333E-01  1.66666667E-01
                       3.33333333E-01  3.33333333E-01  1.66666667E-01
                       5.00000000E-01  3.33333333E-01  1.66666667E-01
                      -3.33333333E-01  3.33333333E-01  1.66666667E-01
                      -1.66666667E-01  3.33333333E-01  1.66666667E-01
                       0.00000000E+00  5.00000000E-01  1.66666667E-01
                       1.66666667E-01  5.00000000E-01  1.66666667E-01
                       3.33333333E-01  5.00000000E-01  1.66666667E-01
                       5.00000000E-01  5.00000000E-01  1.66666667E-01
                      -3.33333333E-01  5.00000000E-01  1.66666667E-01
                      -1.66666667E-01  5.00000000E-01  1.66666667E-01
                       0.00000000E+00 -3.33333333E-01  1.66666667E-01
                       1.66666667E-01 -3.33333333E-01  1.66666667E-01
                       3.33333333E-01 -3.33333333E-01  1.66666667E-01
                       5.00000000E-01 -3.33333333E-01  1.66666667E-01
                      -3.33333333E-01 -3.33333333E-01  1.66666667E-01
                      -1.66666667E-01 -3.33333333E-01  1.66666667E-01
                       outvar_i_n : Printing only first  50 k-points.
           kptopt           2
         kptrlatt        6    0    0      0    6    0      0    0    6
          kptrlen      5.75486009E+01
P           mkmem           4
            natom          12
            nband          50
            ngfft          45      45      45
             nkpt         112
            nstep         100
             nsym           1
           ntypat           2
              occ      2.000000  2.000000  2.000000  2.000000  2.000000  2.000000
                       2.000000  2.000000  2.000000  2.000000  2.000000  2.000000
                       2.000000  2.000000  2.000000  2.000000  2.000000  2.000000
                       2.000000  2.000000  2.000000  2.000000  2.000000  2.000000
                       2.000000  2.000000  2.000000  2.000000  2.000000  2.000000
                       2.000000  2.000000  2.000000  2.000000  2.000000  2.000000
                       2.000000  2.000000  2.000000  2.000000  2.000000  2.000000
                       2.000000  2.000000  2.000000  2.000000  2.000000  2.000000
                       0.000000  0.000000
        pawecutdg      2.50000000E+01 Hartree
         pawxcdev           0
          spgroup           1
        symmorphi           0
           tolmxf      1.00000000E-05
           tolvrs      1.00000000E-18
           tsmear      4.00000000E-02 Hartree
            typat      1  1  1  1  2  2  2  2  2  2  2  2
              wtk        0.00463    0.00926    0.00926    0.00463    0.00926    0.00926
                         0.00926    0.00926    0.00926    0.00926    0.00926    0.00926
                         0.00926    0.00926    0.00926    0.00926    0.00463    0.00926
                         0.00926    0.00463    0.00926    0.00926    0.00926    0.00926
                         0.00926    0.00926    0.00926    0.00926    0.00926    0.00926
                         0.00926    0.00926    0.00926    0.00926    0.00926    0.00926
                         0.00926    0.00926    0.00926    0.00926    0.00926    0.00926
                         0.00926    0.00926    0.00926    0.00926    0.00926    0.00926
                         0.00926    0.00926
                       outvars : Printing only first  50 k-points.
           xangst      5.7353918400E-06  3.2229856800E-05 -1.5431376280E-01
                       5.7353918400E-06  2.5378283605E+00  2.3835206376E+00
                       2.3745303348E+00  3.2179101120E-05  2.3834443518E+00
                       2.3745300810E+00  2.5378284620E+00 -1.5423757852E-01
                       9.8533300929E-01  1.2626640750E+00  3.5796930969E+00
                       9.8530042415E-01  3.8007488532E+00  3.7249212377E+00
                       1.3897291435E+00  3.8003527051E+00  1.1874502480E+00
                       1.3894733348E+00  1.2624693255E+00  1.0421475471E+00
                       4.0841820713E+00  7.2776427662E-01  1.7131676333E+00
                       4.0846240010E+00  3.2652474985E+00  5.1579099548E-01
                       3.3661596877E+00  3.2651735982E+00  3.0538134457E+00
                       3.3660061010E+00  7.2748897781E-01  4.2512646436E+00
            xcart      1.0838319842E-05  6.0905602654E-05 -2.9161075022E-01
                       1.0838319842E-05  4.7958005735E+00  4.5042012371E+00
                       4.4872120269E+00  6.0809688319E-05  4.5040570779E+00
                       4.4872115473E+00  4.7958007654E+00 -2.9146678280E-01
                       1.8620095373E+00  2.3860892997E+00  6.7646395929E+00
                       1.8619479603E+00  7.1823744324E+00  7.0390810058E+00
                       2.6262074801E+00  7.1816258210E+00  2.2439557651E+00
                       2.6257240718E+00  2.3857212764E+00  1.9693734540E+00
                       7.7179855917E+00  1.3752751721E+00  3.2374176466E+00
                       7.7188207178E+00  6.1704235282E+00  9.7470372326E-01
                       6.3611199292E+00  6.1702838769E+00  5.7708710732E+00
                       6.3608296925E+00  1.3747549328E+00  8.0337258948E+00
             xred      1.1300000000E-06  6.3500000000E-06 -3.0403250000E-02
                       1.1300000000E-06  5.0000874000E-01  4.6960668000E-01
                       4.6783539000E-01  6.3400000000E-06  4.6959165000E-01
                       4.6783534000E-01  5.0000876000E-01 -3.0388240000E-02
                       1.9413256000E-01  2.4877296000E-01  7.0527931000E-01
                       1.9412614000E-01  7.4883222000E-01  7.3389249000E-01
                       2.7380761000E-01  7.4875417000E-01  2.3395416000E-01
                       2.7375721000E-01  2.4873459000E-01  2.0532629000E-01
                       8.0467488000E-01  1.4338578000E-01  3.3753220000E-01
                       8.0476195000E-01  6.4332652000E-01  1.0162232000E-01
                       6.6320847000E-01  6.4331196000E-01  6.0166930000E-01
                       6.6317821000E-01  1.4333154000E-01  8.3759387000E-01
            znucl       72.00000    8.00000

 chkinp: Checking input parameters for consistency.

== DATASET  1 ==================================================================
-   mpi_nproc: 36, omp_nthreads: -1 (-1 if OMP is not activated)
-    --> not optimal distribution: autoparal keyword recommended in input file <--

--- !DatasetInfo
iteration_state: {dtset: 1, }
dimensions: {natom: 12, nkpt: 112, mband: 50, nsppol: 1, nspinor: 1, nspden: 1, mpw: 5280, }
cutoff_energies: {ecut:  25.0, pawecutdg:  25.0, }
[...]
       0.804674880000      0.143385780000      0.337532200000
       0.804761950000      0.643326520000      0.101622320000
       0.663208470000      0.643311960000      0.601669300000
       0.663178210000      0.143331540000      0.837593870000
 rms dE/dt=  1.6064E-01; max dE/dt=  4.2543E-01; dE/dt below (all hartree)
    1       0.160851554241     -0.048861717501     -0.425598155408
    2       0.160560528511     -0.048578394083      0.425429689061
    3      -0.161627136631     -0.049093577500     -0.425989338761
    4      -0.161600334351     -0.048555101591      0.425189304549
    5      -0.114410887997      0.050522775867     -0.002899942599
    6      -0.114701488759      0.051990293605      0.002312593189
    7       0.114551470348      0.051651656635      0.003327034163
    8       0.114140783775      0.050348703061     -0.001612629502
    9      -0.061999682944     -0.000751327046      0.057084554672
   10      -0.061454273430     -0.003623737251     -0.056800092236
   11       0.062543708561     -0.004198866437     -0.056942633664
   12       0.062208908714     -0.001069697025      0.056520292109

 cartesian coordinates (angstrom) at end:
    1      0.00000573539184     0.00003222985680    -0.15431376279600
    2      0.00000573539184     2.53782836046432     2.38352063759424
    3      2.37453033475152     0.00003217910112     2.38344435180720
    4      2.37453008097312     2.53782846197568    -0.15423757852032
    5      0.98533300929408     1.26266407504128     3.57969309689808
    6      0.98530042414752     3.80074885320096     3.72492123768432
    7      1.38972914347248     3.80035270511856     1.18745024796288
    8      1.38947333484528     1.26246932549712     1.04214754708272
    9      4.08418207133184     0.72776427662304     1.71316763328960
   10      4.08462400103760     3.26524749846336     0.51579099547776
   11      3.36615968766096     3.26517359819328     3.05381344566240
   12      3.36600610097328     0.72748897781472     4.25126464356816

 cartesian forces (hartree/bohr) at end:
    1     -0.01677847479818     0.00509240547328     0.04437291661018
    2     -0.01674813254223     0.00506286625808    -0.04435499308753
    3      0.01684305750422     0.00511657912776     0.04441370127012
    4      0.01684026310653     0.00506043778987    -0.04432993066983
    5      0.01192030547882    -0.00526939221662     0.00030252678775
    6      0.01195060342773    -0.00542239517912    -0.00024093064167
    7     -0.01195124183589    -0.00538708898940    -0.00034669595554
    8     -0.01190842377606    -0.00525124343771     0.00016831190757
    9      0.00645592884376     0.00007643048783    -0.00595143903923
   10      0.00639906461021     0.00037590712060     0.00592214034189
   11     -0.00652892807564     0.00043586991834     0.00593700166868
   12     -0.00649402194328     0.00010962364709    -0.00589260919239
 frms,max,avg= 1.6748588E-02 4.4413701E-02   8.140E-06  1.903E-06 -1.796E-07 h/b

 cartesian forces (eV/Angstrom) at end:
    1     -0.86278379134103     0.26186199604723     2.28174692195206
    2     -0.86122352993808     0.26034302865678    -2.28082525743753
    3      0.86610476733217     0.26310505523555     2.28384415331286
    4      0.86596107363753     0.26021815181116    -2.27953649621086
    5      0.61296670160249    -0.27096301954742     0.01555655159681
    6      0.61452468464571    -0.27883074755378    -0.01238915068090
    7     -0.61455751291057    -0.27701523043501    -0.01782782133438
    8     -0.61235571993226    -0.27002977189154     0.00865494554686
    9      0.33197718096846     0.00393021337484    -0.30603527435999
   10      0.32905310475754     0.01932991970993     0.30452867489399
   11     -0.33573095208306     0.02241333048424     0.30529287497901
   12     -0.33393600673890     0.00563707410801    -0.30301012225792
 frms,max,avg= 8.6124698E-01 2.2838442E+00   4.186E-04  9.784E-05 -9.237E-06 e/A
 length scales=  9.591433488838  9.591433488838  9.591433488838 bohr
              =  5.075568000000  5.075568000000  5.075568000000 angstroms
 prteigrs : about to open file o_EIG
 Fermi (or HOMO) energy (hartree) =   0.28442   Average Vxc (hartree)=  -0.44634
 Eigenvalues (hartree) for nkpt= 112  k points:
 kpt#   1, nband= 50, wtk=  0.00463, kpt=  0.0000  0.0000  0.0000 (reduced coord)
  -1.94215   -1.94145   -1.94141   -1.94137   -0.80629   -0.80617   -0.80564   -0.79501
  -0.79357   -0.79320   -0.79296   -0.79253   -0.79105   -0.78753   -0.78742   -0.78728
  -0.40024   -0.34721   -0.34679   -0.34278   -0.31157   -0.30640   -0.30570   -0.30100
   0.06795    0.06817    0.07555    0.09555    0.10007    0.10916    0.16043    0.16468
   0.16702    0.16913    0.17427    0.18110    0.19801    0.20369    0.21026    0.21951
   0.23020    0.23030    0.23120    0.23184    0.24673    0.26293    0.28114    0.28442
   0.45631    0.46150
 prteigrs : prtvol=0 or 1, do not print more k-points.

--- !EnergyTerms
iteration_state     : {dtset: 1, }
comment             : Components of total free energy in Hartree
kinetic             :  1.46428431630339E+02
hartree             :  5.61233117242743E+01
xc                  : -9.09514423131557E+01
Ewald energy        : -2.69740733227385E+02
psp_core            :  1.49595106529080E+01
local_psp           : -2.06307756510246E+02
non_local_psp       : -9.12590803854687E+00
total_energy        : -3.58614586081812E+02
total_energy_eV     : -9.75839915966719E+03
band_energy         : -3.13051398892011E+01
...

 Cartesian components of stress tensor (hartree/bohr^3)
  sigma(1 1)= -2.95585529E-04  sigma(3 2)= -1.13372071E-07
  sigma(2 2)= -3.44611084E-04  sigma(3 1)=  3.92913384E-10
  sigma(3 3)= -5.76487576E-04  sigma(2 1)=  2.80399907E-07

-Cartesian components of stress tensor (GPa)         [Pressure=  1.1932E+01 GPa]
- sigma(1 1)= -8.69642503E+00  sigma(3 2)= -3.33552093E-03
- sigma(2 2)= -1.01388064E+01  sigma(3 1)=  1.15599089E-05
- sigma(3 3)= -1.69608472E+01  sigma(2 1)=  8.24964868E-03

== END DATASET(S) ==============================================================

 -outvars: echo values of variables after computation  --------
            acell      9.5914334888E+00  9.5914334888E+00  9.5914334888E+00 Bohr
              amu      1.78490000E+02  1.59994000E+01
          chkprim           0
             ecut      2.50000000E+01 Hartree
           ecutsm      5.00000000E-01 Hartree
           etotal     -3.5861458608E+02
            fcart     -1.6778474798E-02  5.0924054733E-03  4.4372916610E-02
                      -1.6748132542E-02  5.0628662581E-03 -4.4354993088E-02
                       1.6843057504E-02  5.1165791278E-03  4.4413701270E-02
                       1.6840263107E-02  5.0604377899E-03 -4.4329930670E-02
                       1.1920305479E-02 -5.2693922166E-03  3.0252678775E-04
                       1.1950603428E-02 -5.4223951791E-03 -2.4093064167E-04
                      -1.1951241836E-02 -5.3870889894E-03 -3.4669595554E-04
                      -1.1908423776E-02 -5.2512434377E-03  1.6831190757E-04
                       6.4559288438E-03  7.6430487827E-05 -5.9514390392E-03
                       6.3990646102E-03  3.7590712060E-04  5.9221403419E-03
                      -6.5289280756E-03  4.3586991834E-04  5.9370016687E-03
                      -6.4940219433E-03  1.0962364709E-04 -5.8926091924E-03
-          fftalg         512
           istwfk        2    0    0    3    0    0    0    0    0    0
                         0    0    0    0    0    0    6    0    0    7
                         0    0    0    0    0    0    0    0    0    0
                         0    0    0    0    0    0    0    0    0    0
                         0    0    0    0    0    0    0    0    0    0
                       outvar_i_n : Printing only first  50 k-points.
              ixc          11
              kpt      0.00000000E+00  0.00000000E+00  0.00000000E+00
                       1.66666667E-01  0.00000000E+00  0.00000000E+00
                       3.33333333E-01  0.00000000E+00  0.00000000E+00
                       5.00000000E-01  0.00000000E+00  0.00000000E+00
                       0.00000000E+00  1.66666667E-01  0.00000000E+00
                       1.66666667E-01  1.66666667E-01  0.00000000E+00
                       3.33333333E-01  1.66666667E-01  0.00000000E+00
                       5.00000000E-01  1.66666667E-01  0.00000000E+00
                      -3.33333333E-01  1.66666667E-01  0.00000000E+00
                      -1.66666667E-01  1.66666667E-01  0.00000000E+00
                       0.00000000E+00  3.33333333E-01  0.00000000E+00
                       1.66666667E-01  3.33333333E-01  0.00000000E+00
                       3.33333333E-01  3.33333333E-01  0.00000000E+00
                       5.00000000E-01  3.33333333E-01  0.00000000E+00
                      -3.33333333E-01  3.33333333E-01  0.00000000E+00
                      -1.66666667E-01  3.33333333E-01  0.00000000E+00
                       0.00000000E+00  5.00000000E-01  0.00000000E+00
                       1.66666667E-01  5.00000000E-01  0.00000000E+00
                       3.33333333E-01  5.00000000E-01  0.00000000E+00
                       5.00000000E-01  5.00000000E-01  0.00000000E+00
                       0.00000000E+00  0.00000000E+00  1.66666667E-01
                       1.66666667E-01  0.00000000E+00  1.66666667E-01
                       3.33333333E-01  0.00000000E+00  1.66666667E-01
                       5.00000000E-01  0.00000000E+00  1.66666667E-01
                      -3.33333333E-01  0.00000000E+00  1.66666667E-01
                      -1.66666667E-01  0.00000000E+00  1.66666667E-01
                       0.00000000E+00  1.66666667E-01  1.66666667E-01
                       1.66666667E-01  1.66666667E-01  1.66666667E-01
                       3.33333333E-01  1.66666667E-01  1.66666667E-01
                       5.00000000E-01  1.66666667E-01  1.66666667E-01
                      -3.33333333E-01  1.66666667E-01  1.66666667E-01
                      -1.66666667E-01  1.66666667E-01  1.66666667E-01
                       0.00000000E+00  3.33333333E-01  1.66666667E-01
                       1.66666667E-01  3.33333333E-01  1.66666667E-01
                       3.33333333E-01  3.33333333E-01  1.66666667E-01
                       5.00000000E-01  3.33333333E-01  1.66666667E-01
                      -3.33333333E-01  3.33333333E-01  1.66666667E-01
                      -1.66666667E-01  3.33333333E-01  1.66666667E-01
                       0.00000000E+00  5.00000000E-01  1.66666667E-01
                       1.66666667E-01  5.00000000E-01  1.66666667E-01
                       3.33333333E-01  5.00000000E-01  1.66666667E-01
                       5.00000000E-01  5.00000000E-01  1.66666667E-01
                      -3.33333333E-01  5.00000000E-01  1.66666667E-01
                      -1.66666667E-01  5.00000000E-01  1.66666667E-01
                       0.00000000E+00 -3.33333333E-01  1.66666667E-01
                       1.66666667E-01 -3.33333333E-01  1.66666667E-01
                       3.33333333E-01 -3.33333333E-01  1.66666667E-01
                       5.00000000E-01 -3.33333333E-01  1.66666667E-01
                      -3.33333333E-01 -3.33333333E-01  1.66666667E-01
                      -1.66666667E-01 -3.33333333E-01  1.66666667E-01
                       outvar_i_n : Printing only first  50 k-points.
           kptopt           2
         kptrlatt        6    0    0      0    6    0      0    0    6
          kptrlen      5.75486009E+01
P           mkmem           4
            natom          12
            nband          50
            ngfft          45      45      45
             nkpt         112
            nstep         100
             nsym           1
           ntypat           2
              occ      2.000000  2.000000  2.000000  2.000000  2.000000  2.000000
                       2.000000  2.000000  2.000000  2.000000  2.000000  2.000000
                       2.000000  2.000000  2.000000  2.000000  2.000000  2.000000
                       2.000000  2.000000  2.000000  2.000000  2.000000  2.000000
                       2.000000  2.000000  2.000000  2.000000  2.000000  2.000000
                       2.000000  2.000000  2.000000  2.000000  2.000000  2.000000
                       2.000000  2.000000  2.000000  2.000000  2.000000  2.000000
                       2.000000  2.000000  2.000000  2.000000  2.000000  2.000000
                       0.000000  0.000000
        pawecutdg      2.50000000E+01 Hartree
         pawxcdev           0
          spgroup           1
           strten     -2.9558552866E-04 -3.4461108396E-04 -5.7648757644E-04
                      -1.1337207120E-07  3.9291338379E-10  2.8039990651E-07
        symmorphi           0
           tolmxf      1.00000000E-05
           tolvrs      1.00000000E-18
           tsmear      4.00000000E-02 Hartree
            typat      1  1  1  1  2  2  2  2  2  2  2  2
              wtk        0.00463    0.00926    0.00926    0.00463    0.00926    0.00926
                         0.00926    0.00926    0.00926    0.00926    0.00926    0.00926
                         0.00926    0.00926    0.00926    0.00926    0.00463    0.00926
                         0.00926    0.00463    0.00926    0.00926    0.00926    0.00926
                         0.00926    0.00926    0.00926    0.00926    0.00926    0.00926
                         0.00926    0.00926    0.00926    0.00926    0.00926    0.00926
                         0.00926    0.00926    0.00926    0.00926    0.00926    0.00926
                         0.00926    0.00926    0.00926    0.00926    0.00926    0.00926
                         0.00926    0.00926
                       outvars : Printing only first  50 k-points.
           xangst      5.7353918400E-06  3.2229856800E-05 -1.5431376280E-01
                       5.7353918400E-06  2.5378283605E+00  2.3835206376E+00
                       2.3745303348E+00  3.2179101120E-05  2.3834443518E+00
                       2.3745300810E+00  2.5378284620E+00 -1.5423757852E-01
                       9.8533300929E-01  1.2626640750E+00  3.5796930969E+00
                       9.8530042415E-01  3.8007488532E+00  3.7249212377E+00
                       1.3897291435E+00  3.8003527051E+00  1.1874502480E+00
                       1.3894733348E+00  1.2624693255E+00  1.0421475471E+00
                       4.0841820713E+00  7.2776427662E-01  1.7131676333E+00
                       4.0846240010E+00  3.2652474985E+00  5.1579099548E-01
                       3.3661596877E+00  3.2651735982E+00  3.0538134457E+00
                       3.3660061010E+00  7.2748897781E-01  4.2512646436E+00
            xcart      1.0838319842E-05  6.0905602654E-05 -2.9161075022E-01
                       1.0838319842E-05  4.7958005735E+00  4.5042012371E+00
                       4.4872120269E+00  6.0809688319E-05  4.5040570779E+00
                       4.4872115473E+00  4.7958007654E+00 -2.9146678280E-01
                       1.8620095373E+00  2.3860892997E+00  6.7646395929E+00
                       1.8619479603E+00  7.1823744324E+00  7.0390810058E+00
                       2.6262074801E+00  7.1816258210E+00  2.2439557651E+00
                       2.6257240718E+00  2.3857212764E+00  1.9693734540E+00
                       7.7179855917E+00  1.3752751721E+00  3.2374176466E+00
                       7.7188207178E+00  6.1704235282E+00  9.7470372326E-01
                       6.3611199292E+00  6.1702838769E+00  5.7708710732E+00
                       6.3608296925E+00  1.3747549328E+00  8.0337258948E+00
             xred      1.1300000000E-06  6.3500000000E-06 -3.0403250000E-02
                       1.1300000000E-06  5.0000874000E-01  4.6960668000E-01
                       4.6783539000E-01  6.3400000000E-06  4.6959165000E-01
                       4.6783534000E-01  5.0000876000E-01 -3.0388240000E-02
                       1.9413256000E-01  2.4877296000E-01  7.0527931000E-01
                       1.9412614000E-01  7.4883222000E-01  7.3389249000E-01
                       2.7380761000E-01  7.4875417000E-01  2.3395416000E-01
                       2.7375721000E-01  2.4873459000E-01  2.0532629000E-01
                       8.0467488000E-01  1.4338578000E-01  3.3753220000E-01
                       8.0476195000E-01  6.4332652000E-01  1.0162232000E-01
                       6.6320847000E-01  6.4331196000E-01  6.0166930000E-01
                       6.6317821000E-01  1.4333154000E-01  8.3759387000E-01
            znucl       72.00000    8.00000

- Timing analysis has been suppressed with timopt=0

 Suggested references for the acknowledgment of ABINIT usage.

 Calculation completed.
.Delivered   0 WARNINGs and   0 COMMENTs to log file.