.Version 9.4.1 of ABINIT

 ABINIT is a project of the Universite Catholique de Louvain,
 Corning Inc. and other collaborators, see ~abinit/doc/developers/contributors.txt .
 acknowledgments of the ABINIT effort.

.Starting date : Fri  2 Jul 2021.
- ( at 16h15 )

- input  file    -> PATH9
- output file    -> PATH9.abo
- root for input  files -> i
- root for output files -> o

 Symmetries : the unit cell is not primitive
     intxc =       0    ionmov =       0      iscf =       7    lmnmax =       8
     lnmax =       8     mgfft =      45  mpssoang =       4    mqgrid =    3001
     natom =      12  nloc_mem =       1    nspden =       1   nspinor =       1
    nsppol =       1      nsym =       2    n1xccc =    2501    ntypat =       2
    occopt =       1   xclevel =       2
-    mband =          50        mffmem =           1         mkmem =           4
       mpw =        5280          nfft =       91125          nkpt =         112
  Rough estimation (10% accuracy) of disk space for files :

------------- Echo of variables that govern the present computation ------------
-
- outvars: echo of selected default values
-   iomode0 =  3 , fftalg0 =512 , wfoptalg0 =  0
-
- outvars: echo of global parameters not present in the input file
-  max_nthreads =    0
-
 -outvars: echo values of preprocessed input variables --------
            acell      9.5914334888E+00  9.5914334888E+00  9.5914334888E+00 Bohr
              amu      1.78490000E+02  1.59994000E+01
          chkprim           0
             ecut      2.50000000E+01 Hartree
           ecutsm      5.00000000E-01 Hartree
-          fftalg         512
           istwfk        2    0    0    3    0    0    0    0    0    0
                         0    0    0    0    0    0    6    0    0    7
                         0    0    0    0    0    0    0    0    0    0
                         0    0    0    0    0    0    0    0    0    0
                         0    0    0    0    0    0    0    0    0    0
                       outvar_i_n : Printing only first  50 k-points.
              ixc          11
              kpt      0.00000000E+00  0.00000000E+00  0.00000000E+00
                       1.66666667E-01  0.00000000E+00  0.00000000E+00
                       3.33333333E-01  0.00000000E+00  0.00000000E+00
                       5.00000000E-01  0.00000000E+00  0.00000000E+00
                       0.00000000E+00  1.66666667E-01  0.00000000E+00
                       1.66666667E-01  1.66666667E-01  0.00000000E+00
                       3.33333333E-01  1.66666667E-01  0.00000000E+00
                       5.00000000E-01  1.66666667E-01  0.00000000E+00
                      -3.33333333E-01  1.66666667E-01  0.00000000E+00
                      -1.66666667E-01  1.66666667E-01  0.00000000E+00
                       0.00000000E+00  3.33333333E-01  0.00000000E+00
                       1.66666667E-01  3.33333333E-01  0.00000000E+00
                       3.33333333E-01  3.33333333E-01  0.00000000E+00
                       5.00000000E-01  3.33333333E-01  0.00000000E+00
                      -3.33333333E-01  3.33333333E-01  0.00000000E+00
                      -1.66666667E-01  3.33333333E-01  0.00000000E+00
                       0.00000000E+00  5.00000000E-01  0.00000000E+00
                       1.66666667E-01  5.00000000E-01  0.00000000E+00
                       3.33333333E-01  5.00000000E-01  0.00000000E+00
                       5.00000000E-01  5.00000000E-01  0.00000000E+00
                       0.00000000E+00  0.00000000E+00  1.66666667E-01
                       1.66666667E-01  0.00000000E+00  1.66666667E-01
                       3.33333333E-01  0.00000000E+00  1.66666667E-01
                       5.00000000E-01  0.00000000E+00  1.66666667E-01
                      -3.33333333E-01  0.00000000E+00  1.66666667E-01
                      -1.66666667E-01  0.00000000E+00  1.66666667E-01
                       0.00000000E+00  1.66666667E-01  1.66666667E-01
                       1.66666667E-01  1.66666667E-01  1.66666667E-01
                       3.33333333E-01  1.66666667E-01  1.66666667E-01
                       5.00000000E-01  1.66666667E-01  1.66666667E-01
                      -3.33333333E-01  1.66666667E-01  1.66666667E-01
                      -1.66666667E-01  1.66666667E-01  1.66666667E-01
                       0.00000000E+00  3.33333333E-01  1.66666667E-01
                       1.66666667E-01  3.33333333E-01  1.66666667E-01
                       3.33333333E-01  3.33333333E-01  1.66666667E-01
                       5.00000000E-01  3.33333333E-01  1.66666667E-01
                      -3.33333333E-01  3.33333333E-01  1.66666667E-01
                      -1.66666667E-01  3.33333333E-01  1.66666667E-01
                       0.00000000E+00  5.00000000E-01  1.66666667E-01
                       1.66666667E-01  5.00000000E-01  1.66666667E-01
                       3.33333333E-01  5.00000000E-01  1.66666667E-01
                       5.00000000E-01  5.00000000E-01  1.66666667E-01
                      -3.33333333E-01  5.00000000E-01  1.66666667E-01
                      -1.66666667E-01  5.00000000E-01  1.66666667E-01
                       0.00000000E+00 -3.33333333E-01  1.66666667E-01
                       1.66666667E-01 -3.33333333E-01  1.66666667E-01
                       3.33333333E-01 -3.33333333E-01  1.66666667E-01
                       5.00000000E-01 -3.33333333E-01  1.66666667E-01
                      -3.33333333E-01 -3.33333333E-01  1.66666667E-01
                      -1.66666667E-01 -3.33333333E-01  1.66666667E-01
                       outvar_i_n : Printing only first  50 k-points.
           kptopt           2
         kptrlatt        6    0    0      0    6    0      0    0    6
          kptrlen      5.75486009E+01
P           mkmem           4
            natom          12
            nband          50
            ngfft          45      45      45
             nkpt         112
            nstep         100
             nsym           2
           ntypat           2
              occ      2.000000  2.000000  2.000000  2.000000  2.000000  2.000000
                       2.000000  2.000000  2.000000  2.000000  2.000000  2.000000
                       2.000000  2.000000  2.000000  2.000000  2.000000  2.000000
                       2.000000  2.000000  2.000000  2.000000  2.000000  2.000000
                       2.000000  2.000000  2.000000  2.000000  2.000000  2.000000
                       2.000000  2.000000  2.000000  2.000000  2.000000  2.000000
                       2.000000  2.000000  2.000000  2.000000  2.000000  2.000000
                       2.000000  2.000000  2.000000  2.000000  2.000000  2.000000
                       0.000000  0.000000
        pawecutdg      2.50000000E+01 Hartree
         pawxcdev           0
        symmorphi           0
           symrel      1  0  0   0  1  0   0  0  1      -1  0  0   0  1  0   0  0 -1
           tolmxf      1.00000000E-05
           tolvrs      1.00000000E-18
           tsmear      4.00000000E-02 Hartree
            typat      1  1  1  1  2  2  2  2  2  2  2  2
              wtk        0.00463    0.00926    0.00926    0.00463    0.00926    0.00926
                         0.00926    0.00926    0.00926    0.00926    0.00926    0.00926
                         0.00926    0.00926    0.00926    0.00926    0.00463    0.00926
                         0.00926    0.00463    0.00926    0.00926    0.00926    0.00926
                         0.00926    0.00926    0.00926    0.00926    0.00926    0.00926
                         0.00926    0.00926    0.00926    0.00926    0.00926    0.00926
                         0.00926    0.00926    0.00926    0.00926    0.00926    0.00926
                         0.00926    0.00926    0.00926    0.00926    0.00926    0.00926
                         0.00926    0.00926
                       outvars : Printing only first  50 k-points.
           xangst      0.0000000000E+00  1.2896561487E-02  0.0000000000E+00
                       0.0000000000E+00  2.5506805615E+00  2.5377840000E+00
                       2.5377840000E+00  1.2896561487E-02  2.5377840000E+00
                       2.5377840000E+00  2.5506805615E+00  0.0000000000E+00
                       1.2116114616E+00  1.2074764091E+00  3.5543954255E+00
                       1.2116114616E+00  3.7452604091E+00  4.0589565745E+00
                       1.3261725384E+00  3.7452604091E+00  1.5211725745E+00
                       1.3261725384E+00  1.2074764091E+00  1.0166114255E+00
                       3.8639565384E+00  1.2074764091E+00  1.5211725745E+00
                       3.8639565384E+00  3.7452604091E+00  1.0166114255E+00
                       3.7493954616E+00  3.7452604091E+00  3.5543954255E+00
                       3.7493954616E+00  1.2074764091E+00  4.0589565745E+00
            xcart      0.0000000000E+00  2.4370969266E-02  0.0000000000E+00
                       0.0000000000E+00  4.8200877137E+00  4.7957167444E+00
                       4.7957167444E+00  2.4370969266E-02  4.7957167444E+00
                       4.7957167444E+00  4.8200877137E+00  0.0000000000E+00
                       2.2896138419E+00  2.2817997251E+00  6.7168339222E+00
                       2.2896138419E+00  7.0775164695E+00  7.6703163111E+00
                       2.5061029025E+00  7.0775164695E+00  2.8745995667E+00
                       2.5061029025E+00  2.2817997251E+00  1.9211171777E+00
                       7.3018196469E+00  2.2817997251E+00  2.8745995667E+00
                       7.3018196469E+00  7.0775164695E+00  1.9211171777E+00
                       7.0853305864E+00  7.0775164695E+00  6.7168339222E+00
                       7.0853305864E+00  2.2817997251E+00  7.6703163111E+00
             xred      0.0000000000E+00  2.5409100000E-03  0.0000000000E+00
                       0.0000000000E+00  5.0254091000E-01  5.0000000000E-01
                       5.0000000000E-01  2.5409100000E-03  5.0000000000E-01
                       5.0000000000E-01  5.0254091000E-01  0.0000000000E+00
                       2.3871445750E-01  2.3789976000E-01  7.0029510500E-01
                       2.3871445750E-01  7.3789976000E-01  7.9970489500E-01
                       2.6128554250E-01  7.3789976000E-01  2.9970489500E-01
                       2.6128554250E-01  2.3789976000E-01  2.0029510500E-01
                       7.6128554250E-01  2.3789976000E-01  2.9970489500E-01
                       7.6128554250E-01  7.3789976000E-01  2.0029510500E-01
                       7.3871445750E-01  7.3789976000E-01  7.0029510500E-01
                       7.3871445750E-01  2.3789976000E-01  7.9970489500E-01
            znucl       72.00000    8.00000

 chkinp: Checking input parameters for consistency.

== DATASET  1 ==================================================================
-   mpi_nproc: 36, omp_nthreads: -1 (-1 if OMP is not activated)
-    --> not optimal distribution: autoparal keyword recommended in input file <--

--- !DatasetInfo
iteration_state: {dtset: 1, }
dimensions: {natom: 12, nkpt: 112, mband: 50, nsppol: 1, nspinor: 1, nspden: 1, mpw: 5280, }
cutoff_energies: {ecut:  25.0, pawecutdg:  25.0, }
[...]
       0.761285542500      0.737899760000      0.200295105000
       0.738714457500      0.737899760000      0.700295105000
       0.738714457500      0.237899760000      0.799704895000
 rms dE/dt=  7.6035E-03; max dE/dt=  1.8634E-02; dE/dt below (all hartree)
    1       0.000000000000      0.018633520548      0.000000000000
    2       0.000000000000      0.018595930459      0.000000000000
    3       0.000000000000      0.018624416712      0.000000000000
    4       0.000000000000      0.018607820149      0.000000000000
    5       0.000334700683     -0.009364246566      0.000328645392
    6       0.000386659539     -0.009286983139     -0.000381239090
    7      -0.000449642086     -0.009257096100     -0.000329948803
    8      -0.000422839595     -0.009315189463      0.000389714715
    9      -0.000334700683     -0.009364246566     -0.000328645392
   10      -0.000386659539     -0.009286983139      0.000381239090
   11       0.000449642086     -0.009257096100      0.000329948803
   12       0.000422839595     -0.009315189463     -0.000389714715

 cartesian coordinates (angstrom) at end:
    1      0.00000000000000     0.01289656148688     0.00000000000000
    2      0.00000000000000     2.55068056148688     2.53778400000000
    3      2.53778400000000     0.01289656148688     2.53778400000000
    4      2.53778400000000     2.55068056148688     0.00000000000000
    5      1.21161146162436     1.20747640906368     3.55439542549464
    6      1.21161146162436     3.74526040906368     4.05895657450536
    7      1.32617253837564     3.74526040906368     1.52117257450536
    8      1.32617253837564     1.20747640906368     1.01661142549464
    9      3.86395653837564     1.20747640906368     1.52117257450536
   10      3.86395653837564     3.74526040906368     1.01661142549464
   11      3.74939546162436     3.74526040906368     3.55439542549464
   12      3.74939546162436     1.20747640906368     4.05895657450536

 cartesian forces (hartree/bohr) at end:
    1     -0.00000000000000    -0.00194259795737     0.00000000000000
    2     -0.00000000000000    -0.00193867882588     0.00000000000000
    3     -0.00000000000000    -0.00194164879420     0.00000000000000
    4     -0.00000000000000    -0.00193991844145     0.00000000000000
    5     -0.00003489579361     0.00097644090652    -0.00003426447069
    6     -0.00004031300839     0.00096838544457     0.00003974787401
    7      0.00004687954999     0.00096526943081     0.00003440036394
    8      0.00004408513027     0.00097132622756    -0.00004063154011
    9      0.00003489579361     0.00097644090652     0.00003426447069
   10      0.00004031300839     0.00096838544457    -0.00003974787401
   11     -0.00004687954999     0.00096526943081    -0.00003440036394
   12     -0.00004408513027     0.00097132622756     0.00004063154011
 frms,max,avg= 7.9273515E-04 1.9425980E-03   0.000E+00 -1.273E-07  0.000E+00 h/b

 cartesian forces (eV/Angstrom) at end:
    1     -0.00000000000000    -0.09989239492118     0.00000000000000
    2     -0.00000000000000    -0.09969086509389     0.00000000000000
    3     -0.00000000000000    -0.09984358699261     0.00000000000000
    4     -0.00000000000000    -0.09975460868422     0.00000000000000
    5     -0.00179441370438     0.05021060599844    -0.00176194977683
    6     -0.00207297806470     0.04979637752514     0.00204391768900
    7      0.00241064318182     0.04963614566844     0.00176893768858
    8      0.00226694835452     0.04994759865392    -0.00208935762330
    9      0.00179441370438     0.05021060599844     0.00176194977683
   10      0.00207297806470     0.04979637752514    -0.00204391768900
   11     -0.00241064318182     0.04963614566844    -0.00176893768858
   12     -0.00226694835452     0.04994759865392     0.00208935762330
 frms,max,avg= 4.0764077E-02 9.9892395E-02   0.000E+00 -6.548E-06  0.000E+00 e/A
 length scales=  9.591433488838  9.591433488838  9.591433488838 bohr
              =  5.075568000000  5.075568000000  5.075568000000 angstroms
 prteigrs : about to open file o_EIG
 Fermi (or HOMO) energy (hartree) =   0.27678   Average Vxc (hartree)=  -0.44597
 Eigenvalues (hartree) for nkpt= 112  k points:
 kpt#   1, nband= 50, wtk=  0.00463, kpt=  0.0000  0.0000  0.0000 (reduced coord)
  -1.94328   -1.94261   -1.94258   -1.94258   -0.80509   -0.80503   -0.80472   -0.79353
  -0.79292   -0.79259   -0.79204   -0.79145   -0.79129   -0.78825   -0.78676   -0.78674
  -0.39517   -0.33823   -0.32961   -0.32883   -0.31890   -0.31628   -0.31562   -0.29804
   0.06052    0.06072    0.07209    0.09596    0.10304    0.10365    0.16125    0.16383
   0.16652    0.16904    0.17223    0.17228    0.21989    0.22401    0.22492    0.22904
   0.24572    0.25304    0.25365    0.25439    0.25463    0.26587    0.26872    0.27516
   0.44514    0.44590
 prteigrs : prtvol=0 or 1, do not print more k-points.

--- !EnergyTerms
iteration_state     : {dtset: 1, }
comment             : Components of total free energy in Hartree
kinetic             :  1.46226926338860E+02
hartree             :  5.59822167133852E+01
xc                  : -9.09118110618113E+01
Ewald energy        : -2.70088540163269E+02
psp_core            :  1.49595106529080E+01
local_psp           : -2.05684795189977E+02
non_local_psp       : -9.11727290217739E+00
total_energy        : -3.58633765612081E+02
total_energy_eV     : -9.75892106122761E+03
band_energy         : -3.11092602191312E+01
...

 Cartesian components of stress tensor (hartree/bohr^3)
  sigma(1 1)= -1.84983579E-04  sigma(3 2)=  0.00000000E+00
  sigma(2 2)= -1.90400660E-04  sigma(3 1)= -3.48971126E-09
  sigma(3 3)= -4.85530614E-04  sigma(2 1)=  0.00000000E+00

-Cartesian components of stress tensor (GPa)         [Pressure=  8.4430E+00 GPa]
- sigma(1 1)= -5.44240386E+00  sigma(3 2)=  0.00000000E+00
- sigma(2 2)= -5.60177987E+00  sigma(3 1)= -1.02670833E-04
- sigma(3 3)= -1.42848014E+01  sigma(2 1)=  0.00000000E+00

== END DATASET(S) ==============================================================

 -outvars: echo values of variables after computation  --------
            acell      9.5914334888E+00  9.5914334888E+00  9.5914334888E+00 Bohr
              amu      1.78490000E+02  1.59994000E+01
          chkprim           0
             ecut      2.50000000E+01 Hartree
           ecutsm      5.00000000E-01 Hartree
           etotal     -3.5863376561E+02
            fcart     -1.1293772630E-21 -1.9425979574E-03  0.0000000000E+00
                      -1.1293772630E-21 -1.9386788259E-03  0.0000000000E+00
                      -1.1293772630E-21 -1.9416487942E-03  0.0000000000E+00
                      -1.1293772630E-21 -1.9399184415E-03  0.0000000000E+00
                      -3.4895793614E-05  9.7644090652E-04 -3.4264470685E-05
                      -4.0313008386E-05  9.6838544457E-04  3.9747874008E-05
                       4.6879549986E-05  9.6526943081E-04  3.4400363944E-05
                       4.4085130269E-05  9.7132622756E-04 -4.0631540113E-05
                       3.4895793614E-05  9.7644090652E-04  3.4264470685E-05
                       4.0313008386E-05  9.6838544457E-04 -3.9747874008E-05
                      -4.6879549986E-05  9.6526943081E-04 -3.4400363944E-05
                      -4.4085130269E-05  9.7132622756E-04  4.0631540113E-05
-          fftalg         512
           istwfk        2    0    0    3    0    0    0    0    0    0
                         0    0    0    0    0    0    6    0    0    7
                         0    0    0    0    0    0    0    0    0    0
                         0    0    0    0    0    0    0    0    0    0
                         0    0    0    0    0    0    0    0    0    0
                       outvar_i_n : Printing only first  50 k-points.
              ixc          11
              kpt      0.00000000E+00  0.00000000E+00  0.00000000E+00
                       1.66666667E-01  0.00000000E+00  0.00000000E+00
                       3.33333333E-01  0.00000000E+00  0.00000000E+00
                       5.00000000E-01  0.00000000E+00  0.00000000E+00
                       0.00000000E+00  1.66666667E-01  0.00000000E+00
                       1.66666667E-01  1.66666667E-01  0.00000000E+00
                       3.33333333E-01  1.66666667E-01  0.00000000E+00
                       5.00000000E-01  1.66666667E-01  0.00000000E+00
                      -3.33333333E-01  1.66666667E-01  0.00000000E+00
                      -1.66666667E-01  1.66666667E-01  0.00000000E+00
                       0.00000000E+00  3.33333333E-01  0.00000000E+00
                       1.66666667E-01  3.33333333E-01  0.00000000E+00
                       3.33333333E-01  3.33333333E-01  0.00000000E+00
                       5.00000000E-01  3.33333333E-01  0.00000000E+00
                      -3.33333333E-01  3.33333333E-01  0.00000000E+00
                      -1.66666667E-01  3.33333333E-01  0.00000000E+00
                       0.00000000E+00  5.00000000E-01  0.00000000E+00
                       1.66666667E-01  5.00000000E-01  0.00000000E+00
                       3.33333333E-01  5.00000000E-01  0.00000000E+00
                       5.00000000E-01  5.00000000E-01  0.00000000E+00
                       0.00000000E+00  0.00000000E+00  1.66666667E-01
                       1.66666667E-01  0.00000000E+00  1.66666667E-01
                       3.33333333E-01  0.00000000E+00  1.66666667E-01
                       5.00000000E-01  0.00000000E+00  1.66666667E-01
                      -3.33333333E-01  0.00000000E+00  1.66666667E-01
                      -1.66666667E-01  0.00000000E+00  1.66666667E-01
                       0.00000000E+00  1.66666667E-01  1.66666667E-01
                       1.66666667E-01  1.66666667E-01  1.66666667E-01
                       3.33333333E-01  1.66666667E-01  1.66666667E-01
                       5.00000000E-01  1.66666667E-01  1.66666667E-01
                      -3.33333333E-01  1.66666667E-01  1.66666667E-01
                      -1.66666667E-01  1.66666667E-01  1.66666667E-01
                       0.00000000E+00  3.33333333E-01  1.66666667E-01
                       1.66666667E-01  3.33333333E-01  1.66666667E-01
                       3.33333333E-01  3.33333333E-01  1.66666667E-01
                       5.00000000E-01  3.33333333E-01  1.66666667E-01
                      -3.33333333E-01  3.33333333E-01  1.66666667E-01
                      -1.66666667E-01  3.33333333E-01  1.66666667E-01
                       0.00000000E+00  5.00000000E-01  1.66666667E-01
                       1.66666667E-01  5.00000000E-01  1.66666667E-01
                       3.33333333E-01  5.00000000E-01  1.66666667E-01
                       5.00000000E-01  5.00000000E-01  1.66666667E-01
                      -3.33333333E-01  5.00000000E-01  1.66666667E-01
                      -1.66666667E-01  5.00000000E-01  1.66666667E-01
                       0.00000000E+00 -3.33333333E-01  1.66666667E-01
                       1.66666667E-01 -3.33333333E-01  1.66666667E-01
                       3.33333333E-01 -3.33333333E-01  1.66666667E-01
                       5.00000000E-01 -3.33333333E-01  1.66666667E-01
                      -3.33333333E-01 -3.33333333E-01  1.66666667E-01
                      -1.66666667E-01 -3.33333333E-01  1.66666667E-01
                       outvar_i_n : Printing only first  50 k-points.
           kptopt           2
         kptrlatt        6    0    0      0    6    0      0    0    6
          kptrlen      5.75486009E+01
P           mkmem           4
            natom          12
            nband          50
            ngfft          45      45      45
             nkpt         112
            nstep         100
             nsym           2
           ntypat           2
              occ      2.000000  2.000000  2.000000  2.000000  2.000000  2.000000
                       2.000000  2.000000  2.000000  2.000000  2.000000  2.000000
                       2.000000  2.000000  2.000000  2.000000  2.000000  2.000000
                       2.000000  2.000000  2.000000  2.000000  2.000000  2.000000
                       2.000000  2.000000  2.000000  2.000000  2.000000  2.000000
                       2.000000  2.000000  2.000000  2.000000  2.000000  2.000000
                       2.000000  2.000000  2.000000  2.000000  2.000000  2.000000
                       2.000000  2.000000  2.000000  2.000000  2.000000  2.000000
                       0.000000  0.000000
        pawecutdg      2.50000000E+01 Hartree
         pawxcdev           0
           strten     -1.8498357860E-04 -1.9040065980E-04 -4.8553061390E-04
                       0.0000000000E+00 -3.4897112638E-09  0.0000000000E+00
        symmorphi           0
           symrel      1  0  0   0  1  0   0  0  1      -1  0  0   0  1  0   0  0 -1
           tolmxf      1.00000000E-05
           tolvrs      1.00000000E-18
           tsmear      4.00000000E-02 Hartree
            typat      1  1  1  1  2  2  2  2  2  2  2  2
              wtk        0.00463    0.00926    0.00926    0.00463    0.00926    0.00926
                         0.00926    0.00926    0.00926    0.00926    0.00926    0.00926
                         0.00926    0.00926    0.00926    0.00926    0.00463    0.00926
                         0.00926    0.00463    0.00926    0.00926    0.00926    0.00926
                         0.00926    0.00926    0.00926    0.00926    0.00926    0.00926
                         0.00926    0.00926    0.00926    0.00926    0.00926    0.00926
                         0.00926    0.00926    0.00926    0.00926    0.00926    0.00926
                         0.00926    0.00926    0.00926    0.00926    0.00926    0.00926
                         0.00926    0.00926
                       outvars : Printing only first  50 k-points.
           xangst      0.0000000000E+00  1.2896561487E-02  0.0000000000E+00
                       0.0000000000E+00  2.5506805615E+00  2.5377840000E+00
                       2.5377840000E+00  1.2896561487E-02  2.5377840000E+00
                       2.5377840000E+00  2.5506805615E+00  0.0000000000E+00
                       1.2116114616E+00  1.2074764091E+00  3.5543954255E+00
                       1.2116114616E+00  3.7452604091E+00  4.0589565745E+00
                       1.3261725384E+00  3.7452604091E+00  1.5211725745E+00
                       1.3261725384E+00  1.2074764091E+00  1.0166114255E+00
                       3.8639565384E+00  1.2074764091E+00  1.5211725745E+00
                       3.8639565384E+00  3.7452604091E+00  1.0166114255E+00
                       3.7493954616E+00  3.7452604091E+00  3.5543954255E+00
                       3.7493954616E+00  1.2074764091E+00  4.0589565745E+00
            xcart      0.0000000000E+00  2.4370969266E-02  0.0000000000E+00
                       0.0000000000E+00  4.8200877137E+00  4.7957167444E+00
                       4.7957167444E+00  2.4370969266E-02  4.7957167444E+00
                       4.7957167444E+00  4.8200877137E+00  0.0000000000E+00
                       2.2896138419E+00  2.2817997251E+00  6.7168339222E+00
                       2.2896138419E+00  7.0775164695E+00  7.6703163111E+00
                       2.5061029025E+00  7.0775164695E+00  2.8745995667E+00
                       2.5061029025E+00  2.2817997251E+00  1.9211171777E+00
                       7.3018196469E+00  2.2817997251E+00  2.8745995667E+00
                       7.3018196469E+00  7.0775164695E+00  1.9211171777E+00
                       7.0853305864E+00  7.0775164695E+00  6.7168339222E+00
                       7.0853305864E+00  2.2817997251E+00  7.6703163111E+00
             xred      0.0000000000E+00  2.5409100000E-03  0.0000000000E+00
                       0.0000000000E+00  5.0254091000E-01  5.0000000000E-01
                       5.0000000000E-01  2.5409100000E-03  5.0000000000E-01
                       5.0000000000E-01  5.0254091000E-01  0.0000000000E+00
                       2.3871445750E-01  2.3789976000E-01  7.0029510500E-01
                       2.3871445750E-01  7.3789976000E-01  7.9970489500E-01
                       2.6128554250E-01  7.3789976000E-01  2.9970489500E-01
                       2.6128554250E-01  2.3789976000E-01  2.0029510500E-01
                       7.6128554250E-01  2.3789976000E-01  2.9970489500E-01
                       7.6128554250E-01  7.3789976000E-01  2.0029510500E-01
                       7.3871445750E-01  7.3789976000E-01  7.0029510500E-01
                       7.3871445750E-01  2.3789976000E-01  7.9970489500E-01
            znucl       72.00000    8.00000

- Timing analysis has been suppressed with timopt=0

 Suggested references for the acknowledgment of ABINIT usage.

 Calculation completed.
.Delivered   0 WARNINGs and   0 COMMENTs to log file.