.Version 9.4.2 of ABINIT

 ABINIT is a project of the Universite Catholique de Louvain,
 Corning Inc. and other collaborators, see ~abinit/doc/developers/contributors.txt .
 acknowledgments of the ABINIT effort.

.Starting date : Sun 20 Jun 2021.
- ( at 13h20 )

- input  file    -> /p/work1/jiahaoz/HfO4/CUBIC_ITERATE/iterone/P0.02/dfpt0
- output file    -> /p/work1/jiahaoz/HfO4/CUBIC_ITERATE/iterone/P0.02/dfpt0.abo
- root for input  files -> i
- root for output files -> o

 DATASET    1 : space group P-4 2 m (#111); Bravais tP (primitive tetrag.)
     intxc =       0    ionmov =       0      iscf =       7    lmnmax =       8
     lnmax =       8     mgfft =      48  mpssoang =       4    mqgrid =    3001
     natom =      12  nloc_mem =       1    nspden =       1   nspinor =       1
    nsppol =       1      nsym =       8    n1xccc =    2501    ntypat =       2
    occopt =       1   xclevel =       2
-    mband =          48        mffmem =           1         mkmem =           2
       mpw =        6126          nfft =      110592          nkpt =          36
  Rough estimation (10% accuracy) of disk space for files :

 DATASET    2 : space group P-4 2 m (#111); Bravais tP (primitive tetrag.)
     intxc =       0    ionmov =       0      iscf =      -2    lmnmax =       8
     lnmax =       8     mgfft =      48  mpssoang =       4    mqgrid =    3001
     natom =      12  nloc_mem =       1    nspden =       1   nspinor =       1
    nsppol =       1      nsym =       8    n1xccc =    2501    ntypat =       2
    occopt =       1   xclevel =       2
-    mband =          48        mffmem =           1         mkmem =           2
       mpw =        6126          nfft =      110592          nkpt =          36
  Rough estimation (10% accuracy) of disk space for files :

 DATASET    3 : space group P-4 2 m (#111); Bravais tP (primitive tetrag.)
     intxc =       0      iscf =       7    lmnmax =       8     lnmax =       8
     mgfft =      48  mpssoang =       4    mqgrid =    3001     natom =      12
  nloc_mem =       1    nspden =       1   nspinor =       1    nsppol =       1
      nsym =       8    n1xccc =    2501    ntypat =       2    occopt =       1
   xclevel =       2
-    mband =          48        mffmem =           1         mkmem =           2
-   mkqmem =           2        mk1mem =           2           mpw =        6126
      nfft =      110592          nkpt =          36
  Rough estimation (10% accuracy) of disk space for files :

------------- Echo of variables that govern the present computation ------------
-
- outvars: echo of selected default values
-   iomode0 =  0 , fftalg0 =512 , wfoptalg0 =  0
-
- outvars: echo of global parameters not present in the input file
-  max_nthreads =    0
-
 -outvars: echo values of preprocessed input variables --------
            acell      9.5914334888E+00  9.5914334888E+00  9.5914334888E+00 Bohr
              amu      1.78490000E+02  1.59994000E+01
         berryopt1          0
         berryopt2         -2
         berryopt3          0
          dilatmx      1.05000000E+00
             ecut      2.50000000E+01 Hartree
           ecutsm      5.00000000E-01 Hartree
-          fftalg         512
           getddk1          0
           getddk2          0
           getddk3          2
           getden1          0
           getden2          1
           getden3          0
           getwfk1          0
           getwfk2          1
           getwfk3          2
             iscf1          7
             iscf2         -2
             iscf3          7
           istwfk1       2    0    3    0    0    0    0    6    0    7
                         0    0    0    0    0    0    0    0    0    0
                         0    0    0    0    0    0    4    0    5    0
                         0    0    0    8    0    9
           istwfk2       1    0    1    0    0    0    0    1    0    1
                         0    0    0    0    0    0    0    0    0    0
                         0    0    0    0    0    0    1    0    1    0
                         0    0    0    1    0    1
           istwfk3       1    0    1    0    0    0    0    1    0    1
                         0    0    0    0    0    0    0    0    0    0
                         0    0    0    0    0    0    1    0    1    0
                         0    0    0    1    0    1
              ixc          11
           jdtset        1    2    3
              kpt      0.00000000E+00  0.00000000E+00  0.00000000E+00
                       2.50000000E-01  0.00000000E+00  0.00000000E+00
                       5.00000000E-01  0.00000000E+00  0.00000000E+00
                       0.00000000E+00  2.50000000E-01  0.00000000E+00
                       2.50000000E-01  2.50000000E-01  0.00000000E+00
                       5.00000000E-01  2.50000000E-01  0.00000000E+00
                      -2.50000000E-01  2.50000000E-01  0.00000000E+00
                       0.00000000E+00  5.00000000E-01  0.00000000E+00
                       2.50000000E-01  5.00000000E-01  0.00000000E+00
                       5.00000000E-01  5.00000000E-01  0.00000000E+00
                       0.00000000E+00  0.00000000E+00  2.50000000E-01
                       2.50000000E-01  0.00000000E+00  2.50000000E-01
                       5.00000000E-01  0.00000000E+00  2.50000000E-01
                      -2.50000000E-01  0.00000000E+00  2.50000000E-01
                       0.00000000E+00  2.50000000E-01  2.50000000E-01
                       2.50000000E-01  2.50000000E-01  2.50000000E-01
                       5.00000000E-01  2.50000000E-01  2.50000000E-01
                      -2.50000000E-01  2.50000000E-01  2.50000000E-01
                       0.00000000E+00  5.00000000E-01  2.50000000E-01
                       2.50000000E-01  5.00000000E-01  2.50000000E-01
                       5.00000000E-01  5.00000000E-01  2.50000000E-01
                      -2.50000000E-01  5.00000000E-01  2.50000000E-01
                       0.00000000E+00 -2.50000000E-01  2.50000000E-01
                       2.50000000E-01 -2.50000000E-01  2.50000000E-01
                       5.00000000E-01 -2.50000000E-01  2.50000000E-01
                      -2.50000000E-01 -2.50000000E-01  2.50000000E-01
                       0.00000000E+00  0.00000000E+00  5.00000000E-01
                       2.50000000E-01  0.00000000E+00  5.00000000E-01
                       5.00000000E-01  0.00000000E+00  5.00000000E-01
                       0.00000000E+00  2.50000000E-01  5.00000000E-01
                       2.50000000E-01  2.50000000E-01  5.00000000E-01
                       5.00000000E-01  2.50000000E-01  5.00000000E-01
                      -2.50000000E-01  2.50000000E-01  5.00000000E-01
                       0.00000000E+00  5.00000000E-01  5.00000000E-01
                       2.50000000E-01  5.00000000E-01  5.00000000E-01
                       5.00000000E-01  5.00000000E-01  5.00000000E-01
           kptopt           2
         kptrlatt        4    0    0      0    4    0      0    0    4
          kptrlen      3.83657340E+01
P           mkmem           2
P          mkqmem           2
P          mk1mem           2
            natom          12
            nband          48
           nbdbuf1          0
           nbdbuf2          2
           nbdbuf3          0
           ndtset           3
            ngfft          48      48      48
             nkpt          36
            nstep1        100
            nstep2         30
            nstep3        100
             nsym           8
           ntypat           2
              occ      2.000000  2.000000  2.000000  2.000000  2.000000  2.000000
                       2.000000  2.000000  2.000000  2.000000  2.000000  2.000000
                       2.000000  2.000000  2.000000  2.000000  2.000000  2.000000
                       2.000000  2.000000  2.000000  2.000000  2.000000  2.000000
                       2.000000  2.000000  2.000000  2.000000  2.000000  2.000000
                       2.000000  2.000000  2.000000  2.000000  2.000000  2.000000
                       2.000000  2.000000  2.000000  2.000000  2.000000  2.000000
                       2.000000  2.000000  2.000000  2.000000  2.000000  2.000000
        optdriver1          0
        optdriver2          0
        optdriver3          1
        pawecutdg      3.00000000E+01 Hartree
         pawxcdev           0
           prtden1          1
           prtden2          0
           prtden3          0
           prteig           0
            prtwf1          1
            prtwf2          1
            prtwf3          0
          rfatpol1          1       1
          rfatpol2          1       1
          rfatpol3          1      12
            rfdir1          0       0       0
            rfdir2          1       1       1
            rfdir3          1       1       1
           rfelfd1          0
           rfelfd2          0
           rfelfd3          3
           rfphon1          0
           rfphon2          0
           rfphon3          1
           rfstrs1          0
           rfstrs2          0
           rfstrs3          3
          spgroup         111
        symmorphi           0
           symrel      1  0  0   0  1  0   0  0  1      -1  0  0   0  1  0   0  0 -1
                      -1  0  0   0 -1  0   0  0  1       1  0  0   0 -1  0   0  0 -1
                       0  1  0   1  0  0   0  0  1       0 -1  0   1  0  0   0  0 -1
                       0 -1  0  -1  0  0   0  0  1       0  1  0  -1  0  0   0  0 -1
           toldfe1     1.00000000E-13 Hartree
           toldfe2     0.00000000E+00 Hartree
           toldfe3     0.00000000E+00 Hartree
           tolvrs1     0.00000000E+00
           tolvrs2     0.00000000E+00
           tolvrs3     1.00000000E-13
           tolwfr1     0.00000000E+00
           tolwfr2     1.00000000E-22
           tolwfr3     0.00000000E+00
            typat      1  1  1  1  2  2  2  2  2  2  2  2
              wtk        0.01563    0.03125    0.01563    0.03125    0.03125    0.03125
                         0.03125    0.01563    0.03125    0.01563    0.03125    0.03125
                         0.03125    0.03125    0.03125    0.03125    0.03125    0.03125
                         0.03125    0.03125    0.03125    0.03125    0.03125    0.03125
                         0.03125    0.03125    0.01563    0.03125    0.01563    0.03125
                         0.03125    0.03125    0.03125    0.01563    0.03125    0.01563
           xangst      0.0000000000E+00  0.0000000000E+00  0.0000000000E+00
                       2.5377840000E+00  2.5377840000E+00  0.0000000000E+00
                       0.0000000000E+00  2.5377840000E+00  2.5377840000E+00
                       2.5377840000E+00  0.0000000000E+00  2.5377840000E+00
                       1.2689242770E+00  1.2689242770E+00  1.0234194571E+00
                       1.2688260153E+00  1.2688260153E+00  3.5612132522E+00
                       3.8066437230E+00  3.8066437230E+00  1.0234194571E+00
                       3.8067419847E+00  3.8067419847E+00  3.5612132522E+00
                       1.2688260153E+00  3.8067419847E+00  1.5143547478E+00
[...]
   3   14   1   16         0.0000000000         0.0000000000
   3   14   2   16         0.0000000000         0.0000000000
   3   14   3   16        -0.0000000529         0.0000000000

  Phonon wavevector (reduced coordinates) :  0.00000  0.00000  0.00000
 Phonon energies in Hartree :
  -1.698362E-04 -1.698362E-04  9.486805E-05  2.349928E-04  2.349928E-04
   4.290101E-04  4.290350E-04  4.699360E-04  4.699360E-04  4.726613E-04
   4.727567E-04  5.859297E-04  5.859297E-04  8.649146E-04  8.649146E-04
   1.060679E-03  1.238028E-03  1.238058E-03  1.325003E-03  1.454029E-03
   1.686853E-03  1.686853E-03  1.983018E-03  1.983018E-03  2.119491E-03
   2.119491E-03  2.715764E-03  2.715764E-03  2.731004E-03  2.731035E-03
   2.865567E-03  3.045877E-03  3.045877E-03  3.132971E-03  3.308482E-03
   3.308510E-03
 Phonon frequencies in cm-1    :
- -3.727475E+01 -3.727475E+01  2.082113E+01  5.157495E+01  5.157495E+01
-  9.415683E+01  9.416231E+01  1.031390E+02  1.031390E+02  1.037372E+02
-  1.037581E+02  1.285967E+02  1.285967E+02  1.898268E+02  1.898268E+02
-  2.327920E+02  2.717158E+02  2.717223E+02  2.908046E+02  3.191224E+02
-  3.702215E+02  3.702215E+02  4.352222E+02  4.352222E+02  4.651746E+02
-  4.651746E+02  5.960413E+02  5.960413E+02  5.993861E+02  5.993928E+02
-  6.289192E+02  6.684928E+02  6.684928E+02  6.876078E+02  7.261278E+02
-  7.261341E+02

  Phonon at Gamma, with non-analyticity in the
  direction (cartesian coordinates)  1.00000  0.00000  0.00000
 Phonon energies in Hartree :
  -1.698362E-04 -1.307793E-04  9.486805E-05  2.349928E-04  4.290101E-04
   4.290350E-04  4.699360E-04  4.699360E-04  4.726613E-04  4.727567E-04
   5.859297E-04  5.859297E-04  8.649146E-04  8.649146E-04  1.017934E-03
   1.060679E-03  1.238028E-03  1.238058E-03  1.325003E-03  1.454029E-03
   1.686853E-03  1.686853E-03  1.983018E-03  2.119491E-03  2.119491E-03
   2.715764E-03  2.715764E-03  2.731004E-03  2.731035E-03  2.865567E-03
   3.045877E-03  3.045877E-03  3.132971E-03  3.230043E-03  3.308482E-03
   3.308510E-03
 Phonon frequencies in cm-1    :
- -3.727475E+01 -2.870273E+01  2.082113E+01  5.157495E+01  9.415683E+01
-  9.416231E+01  1.031390E+02  1.031390E+02  1.037372E+02  1.037581E+02
-  1.285967E+02  1.285967E+02  1.898268E+02  1.898268E+02  2.234108E+02
-  2.327920E+02  2.717158E+02  2.717223E+02  2.908046E+02  3.191224E+02
-  3.702215E+02  3.702215E+02  4.352222E+02  4.651746E+02  4.651746E+02
-  5.960413E+02  5.960413E+02  5.993861E+02  5.993928E+02  6.289192E+02
-  6.684928E+02  6.684928E+02  6.876078E+02  7.089124E+02  7.261278E+02
-  7.261341E+02

[...]

  Phonon at Gamma, with non-analyticity in the
  direction (cartesian coordinates)  0.00000  0.00000  1.00000
 Phonon energies in Hartree :
  -1.698362E-04 -1.698362E-04  9.573712E-05  2.349928E-04  2.349928E-04
   4.290101E-04  4.290350E-04  4.699360E-04  4.699360E-04  4.726613E-04
   4.727567E-04  5.859297E-04  5.859297E-04  8.649146E-04  8.649146E-04
   1.060679E-03  1.238028E-03  1.238058E-03  1.325003E-03  1.686853E-03
   1.686853E-03  1.983018E-03  1.983018E-03  2.119491E-03  2.119491E-03
   2.715764E-03  2.715764E-03  2.731004E-03  2.731034E-03  2.840581E-03
   2.865567E-03  3.045877E-03  3.045877E-03  3.132971E-03  3.308482E-03
   3.308510E-03
 Phonon frequencies in cm-1    :
- -3.727475E+01 -3.727475E+01  2.101187E+01  5.157495E+01  5.157495E+01
-  9.415683E+01  9.416231E+01  1.031390E+02  1.031390E+02  1.037372E+02
-  1.037581E+02  1.285967E+02  1.285967E+02  1.898268E+02  1.898268E+02
-  2.327920E+02  2.717158E+02  2.717223E+02  2.908046E+02  3.702215E+02
-  3.702215E+02  4.352222E+02  4.352222E+02  4.651746E+02  4.651746E+02
-  5.960413E+02  5.960413E+02  5.993861E+02  5.993928E+02  6.234355E+02
-  6.289192E+02  6.684928E+02  6.684928E+02  6.876078E+02  7.261278E+02
-  7.261341E+02

== END DATASET(S) ==============================================================

 -outvars: echo values of variables after computation  --------
            acell      9.5914334888E+00  9.5914334888E+00  9.5914334888E+00 Bohr
              amu      1.78490000E+02  1.59994000E+01
         berryopt1          0
         berryopt2         -2
         berryopt3          0
          dilatmx      1.05000000E+00
             ecut      2.50000000E+01 Hartree
           ecutsm      5.00000000E-01 Hartree
           etotal1    -3.5863372253E+02
           etotal3     4.0613413606E+00
            fcart1     1.7646519734E-23 -1.7646519734E-23  1.1293772630E-21
                       1.7646519734E-23 -1.7646519734E-23  1.1293772630E-21
                       1.7646519734E-23 -1.7646519734E-23  1.1293772630E-21
                       1.7646519734E-23 -1.7646519734E-23  1.1293772630E-21
                       1.8179957042E-06  1.8179957042E-06 -1.1123792686E-04
                       2.0657053904E-06  2.0657053904E-06 -1.1653938412E-04
                      -1.8179957042E-06 -1.8179957042E-06 -1.1123792686E-04
                      -2.0657053904E-06 -2.0657053904E-06 -1.1653938412E-04
                       2.0657053904E-06 -2.0657053904E-06  1.1653938412E-04
                       1.8179957042E-06 -1.8179957042E-06  1.1123792686E-04
                      -2.0657053904E-06  2.0657053904E-06  1.1653938412E-04
                      -1.8179957042E-06  1.8179957042E-06  1.1123792686E-04
            fcart3     0.0000000000E+00  0.0000000000E+00  0.0000000000E+00
                       0.0000000000E+00  0.0000000000E+00  0.0000000000E+00
                       0.0000000000E+00  0.0000000000E+00  0.0000000000E+00
                       0.0000000000E+00  0.0000000000E+00  0.0000000000E+00
                       0.0000000000E+00  0.0000000000E+00  0.0000000000E+00
                       0.0000000000E+00  0.0000000000E+00  0.0000000000E+00
                       0.0000000000E+00  0.0000000000E+00  0.0000000000E+00
                       0.0000000000E+00  0.0000000000E+00  0.0000000000E+00
                       0.0000000000E+00  0.0000000000E+00  0.0000000000E+00
                       0.0000000000E+00  0.0000000000E+00  0.0000000000E+00
                       0.0000000000E+00  0.0000000000E+00  0.0000000000E+00
                       0.0000000000E+00  0.0000000000E+00  0.0000000000E+00
-          fftalg         512
           getddk1          0
           getddk2          0
           getddk3          2
           getden1          0
           getden2          1
           getden3          0
           getwfk1          0
           getwfk2          1
           getwfk3          2
             iscf1          7
             iscf2         -2
             iscf3          7
           istwfk1       2    0    3    0    0    0    0    6    0    7
                         0    0    0    0    0    0    0    0    0    0
                         0    0    0    0    0    0    4    0    5    0
                         0    0    0    8    0    9
           istwfk2       1    0    1    0    0    0    0    1    0    1
                         0    0    0    0    0    0    0    0    0    0
                         0    0    0    0    0    0    1    0    1    0
                         0    0    0    1    0    1
           istwfk3       1    0    1    0    0    0    0    1    0    1
                         0    0    0    0    0    0    0    0    0    0
                         0    0    0    0    0    0    1    0    1    0
                         0    0    0    1    0    1
              ixc          11
           jdtset        1    2    3
              kpt      0.00000000E+00  0.00000000E+00  0.00000000E+00
                       2.50000000E-01  0.00000000E+00  0.00000000E+00
                       5.00000000E-01  0.00000000E+00  0.00000000E+00
                       0.00000000E+00  2.50000000E-01  0.00000000E+00
                       2.50000000E-01  2.50000000E-01  0.00000000E+00
                       5.00000000E-01  2.50000000E-01  0.00000000E+00
                      -2.50000000E-01  2.50000000E-01  0.00000000E+00
                       0.00000000E+00  5.00000000E-01  0.00000000E+00
                       2.50000000E-01  5.00000000E-01  0.00000000E+00
                       5.00000000E-01  5.00000000E-01  0.00000000E+00
                       0.00000000E+00  0.00000000E+00  2.50000000E-01
                       2.50000000E-01  0.00000000E+00  2.50000000E-01
                       5.00000000E-01  0.00000000E+00  2.50000000E-01
                      -2.50000000E-01  0.00000000E+00  2.50000000E-01
                       0.00000000E+00  2.50000000E-01  2.50000000E-01
                       2.50000000E-01  2.50000000E-01  2.50000000E-01
                       5.00000000E-01  2.50000000E-01  2.50000000E-01
                      -2.50000000E-01  2.50000000E-01  2.50000000E-01
                       0.00000000E+00  5.00000000E-01  2.50000000E-01
                       2.50000000E-01  5.00000000E-01  2.50000000E-01
                       5.00000000E-01  5.00000000E-01  2.50000000E-01
                      -2.50000000E-01  5.00000000E-01  2.50000000E-01
                       0.00000000E+00 -2.50000000E-01  2.50000000E-01
                       2.50000000E-01 -2.50000000E-01  2.50000000E-01
                       5.00000000E-01 -2.50000000E-01  2.50000000E-01
                      -2.50000000E-01 -2.50000000E-01  2.50000000E-01
                       0.00000000E+00  0.00000000E+00  5.00000000E-01
                       2.50000000E-01  0.00000000E+00  5.00000000E-01
                       5.00000000E-01  0.00000000E+00  5.00000000E-01
                       0.00000000E+00  2.50000000E-01  5.00000000E-01
                       2.50000000E-01  2.50000000E-01  5.00000000E-01
                       5.00000000E-01  2.50000000E-01  5.00000000E-01
                      -2.50000000E-01  2.50000000E-01  5.00000000E-01
                       0.00000000E+00  5.00000000E-01  5.00000000E-01
                       2.50000000E-01  5.00000000E-01  5.00000000E-01
                       5.00000000E-01  5.00000000E-01  5.00000000E-01
           kptopt           2
         kptrlatt        4    0    0      0    4    0      0    0    4
          kptrlen      3.83657340E+01
P           mkmem           2
P          mkqmem           2
P          mk1mem           2
            natom          12
            nband          48
           nbdbuf1          0
           nbdbuf2          2
           nbdbuf3          0
           ndtset           3
            ngfft          48      48      48
             nkpt          36
            nstep1        100
            nstep2         30
            nstep3        100
             nsym           8
           ntypat           2
              occ      2.000000  2.000000  2.000000  2.000000  2.000000  2.000000
                       2.000000  2.000000  2.000000  2.000000  2.000000  2.000000
                       2.000000  2.000000  2.000000  2.000000  2.000000  2.000000
                       2.000000  2.000000  2.000000  2.000000  2.000000  2.000000
                       2.000000  2.000000  2.000000  2.000000  2.000000  2.000000
                       2.000000  2.000000  2.000000  2.000000  2.000000  2.000000
                       2.000000  2.000000  2.000000  2.000000  2.000000  2.000000
                       2.000000  2.000000  2.000000  2.000000  2.000000  2.000000
        optdriver1          0
        optdriver2          0
        optdriver3          1
        pawecutdg      3.00000000E+01 Hartree
         pawxcdev           0
           prtden1          1
           prtden2          0
           prtden3          0
           prteig           0
            prtwf1          1
            prtwf2          1
            prtwf3          0
          rfatpol1          1       1
          rfatpol2          1       1
          rfatpol3          1      12
            rfdir1          0       0       0
            rfdir2          1       1       1
            rfdir3          1       1       1
           rfelfd1          0
           rfelfd2          0
           rfelfd3          3
           rfphon1          0
           rfphon2          0
           rfphon3          1
           rfstrs1          0
           rfstrs2          0
           rfstrs3          3
          spgroup         111
           strten1    -1.4145998180E-04 -1.4145998180E-04 -4.4793377931E-04
                       0.0000000000E+00  0.0000000000E+00  0.0000000000E+00
           strten3     0.0000000000E+00  0.0000000000E+00  0.0000000000E+00
                       0.0000000000E+00  0.0000000000E+00  0.0000000000E+00
        symmorphi           0
           symrel      1  0  0   0  1  0   0  0  1      -1  0  0   0  1  0   0  0 -1
                      -1  0  0   0 -1  0   0  0  1       1  0  0   0 -1  0   0  0 -1
                       0  1  0   1  0  0   0  0  1       0 -1  0   1  0  0   0  0 -1
                       0 -1  0  -1  0  0   0  0  1       0  1  0  -1  0  0   0  0 -1
           toldfe1     1.00000000E-13 Hartree
           toldfe2     0.00000000E+00 Hartree
           toldfe3     0.00000000E+00 Hartree
           tolvrs1     0.00000000E+00
           tolvrs2     0.00000000E+00
           tolvrs3     1.00000000E-13
           tolwfr1     0.00000000E+00
           tolwfr2     1.00000000E-22
           tolwfr3     0.00000000E+00
            typat      1  1  1  1  2  2  2  2  2  2  2  2
              wtk        0.01563    0.03125    0.01563    0.03125    0.03125    0.03125
                         0.03125    0.01563    0.03125    0.01563    0.03125    0.03125
                         0.03125    0.03125    0.03125    0.03125    0.03125    0.03125
                         0.03125    0.03125    0.03125    0.03125    0.03125    0.03125
                         0.03125    0.03125    0.01563    0.03125    0.01563    0.03125
                         0.03125    0.03125    0.03125    0.01563    0.03125    0.01563
           xangst      0.0000000000E+00  0.0000000000E+00  0.0000000000E+00
                       2.5377840000E+00  2.5377840000E+00  0.0000000000E+00
                       0.0000000000E+00  2.5377840000E+00  2.5377840000E+00
                       2.5377840000E+00  0.0000000000E+00  2.5377840000E+00
                       1.2689242770E+00  1.2689242770E+00  1.0234194571E+00
                       1.2688260153E+00  1.2688260153E+00  3.5612132522E+00
                       3.8066437230E+00  3.8066437230E+00  1.0234194571E+00
                       3.8067419847E+00  3.8067419847E+00  3.5612132522E+00
                       1.2688260153E+00  3.8067419847E+00  1.5143547478E+00
                       1.2689242770E+00  3.8066437230E+00  4.0521485429E+00
                       3.8067419847E+00  1.2688260153E+00  1.5143547478E+00
                       3.8066437230E+00  1.2689242770E+00  4.0521485429E+00
            xcart      0.0000000000E+00  0.0000000000E+00  0.0000000000E+00
                       4.7957167444E+00  4.7957167444E+00  0.0000000000E+00
                       0.0000000000E+00  4.7957167444E+00  4.7957167444E+00
                       4.7957167444E+00  0.0000000000E+00  4.7957167444E+00
                       2.3979193669E+00  2.3979193669E+00  1.9339824929E+00
                       2.3977336793E+00  2.3977336793E+00  6.7297177474E+00
                       7.1935141219E+00  7.1935141219E+00  1.9339824929E+00
                       7.1936998096E+00  7.1936998096E+00  6.7297177474E+00
                       2.3977336793E+00  7.1936998096E+00  2.8617157415E+00
                       2.3979193669E+00  7.1935141219E+00  7.6574509959E+00
                       7.1936998096E+00  2.3977336793E+00  2.8617157415E+00
                       7.1935141219E+00  2.3979193669E+00  7.6574509959E+00
             xred      0.0000000000E+00  0.0000000000E+00  0.0000000000E+00
                       5.0000000000E-01  5.0000000000E-01  0.0000000000E+00
                       0.0000000000E+00  5.0000000000E-01  5.0000000000E-01
                       5.0000000000E-01  0.0000000000E+00  5.0000000000E-01
                       2.5000635929E-01  2.5000635929E-01  2.0163643893E-01
                       2.4998699955E-01  2.4998699955E-01  7.0163836878E-01
                       7.4999364071E-01  7.4999364071E-01  2.0163643893E-01
                       7.5001300045E-01  7.5001300045E-01  7.0163836878E-01
                       2.4998699955E-01  7.5001300045E-01  2.9836163122E-01
                       2.5000635929E-01  7.4999364071E-01  7.9836356107E-01
                       7.5001300045E-01  2.4998699955E-01  2.9836163122E-01
                       7.4999364071E-01  2.5000635929E-01  7.9836356107E-01
            znucl       72.00000    8.00000

- Timing analysis has been suppressed with timopt=0

 Suggested references for the acknowledgment of ABINIT usage.

 Calculation completed.
.Delivered   0 WARNINGs and  23 COMMENTs to log file.