.Version 9.4.2 of ABINIT

 ABINIT is a project of the Universite Catholique de Louvain,
 Corning Inc. and other collaborators, see ~abinit/doc/developers/contributors.txt .
 acknowledgments of the ABINIT effort.

.Starting date : Tue 22 Jun 2021.
- ( at 09h31 )

- input  file    -> /p/work1/jiahaoz/HfO4/CUBIC_ITERATE/itertwo/P-0.30/itenoe10
- output file    -> /p/work1/jiahaoz/HfO4/CUBIC_ITERATE/itertwo/P-0.30/itenoe10.abo
- root for input  files -> i
- root for output files -> o

 DATASET    1 : space group P1 (#  1); Bravais aP (primitive triclinic)
     intxc =       0    ionmov =       0      iscf =       7    lmnmax =       8
     lnmax =       8     mgfft =      45  mpssoang =       4    mqgrid =    3001
     natom =      12  nloc_mem =       1    nspden =       1   nspinor =       1
    nsppol =       1      nsym =       1    n1xccc =    2501    ntypat =       2
    occopt =       1   xclevel =       2
-    mband =          48        mffmem =           1         mkmem =           4
       mpw =        5294          nfft =       91125          nkpt =         112
  Rough estimation (10% accuracy) of disk space for files :

 DATASET    2 : space group P1 (#  1); Bravais aP (primitive triclinic)
     intxc =       0    ionmov =       0      iscf =       7    lmnmax =       8
     lnmax =       8     mgfft =      45  mpssoang =       4    mqgrid =    3001
     natom =      12  nloc_mem =       1    nspden =       1   nspinor =       1
    nsppol =       1      nsym =       1    n1xccc =    2501    ntypat =       2
    occopt =       1   xclevel =       2
-    mband =          48        mffmem =           1         mkmem =           4
       mpw =        5294          nfft =       91125          nkpt =         112
  Rough estimation (10% accuracy) of disk space for files :

------------- Echo of variables that govern the present computation ------------
-
- outvars: echo of selected default values
-   iomode0 =  0 , fftalg0 =512 , wfoptalg0 =  0
-
- outvars: echo of global parameters not present in the input file
-  max_nthreads =    0
-
 -outvars: echo values of preprocessed input variables --------
            acell      9.5914334888E+00  9.5914334888E+00  9.5914334888E+00 Bohr
              amu      1.78490000E+02  1.59994000E+01
         berryopt1         -1
         berryopt2          4
          chkprim           0
             ecut      2.50000000E+01 Hartree
           ecutsm      5.00000000E-01 Hartree
-          fftalg         512
           getwfk1          0
           getwfk2          1
           istwfk        1    0    0    1    0    0    0    0    0    0
                         0    0    0    0    0    0    1    0    0    1
                         0    0    0    0    0    0    0    0    0    0
                         0    0    0    0    0    0    0    0    0    0
                         0    0    0    0    0    0    0    0    0    0
                       outvar_i_n : Printing only first  50 k-points.
              ixc          11
           jdtset        1    2
              kpt      0.00000000E+00  0.00000000E+00  0.00000000E+00
                       1.66666667E-01  0.00000000E+00  0.00000000E+00
                       3.33333333E-01  0.00000000E+00  0.00000000E+00
                       5.00000000E-01  0.00000000E+00  0.00000000E+00
                       0.00000000E+00  1.66666667E-01  0.00000000E+00
                       1.66666667E-01  1.66666667E-01  0.00000000E+00
                       3.33333333E-01  1.66666667E-01  0.00000000E+00
                       5.00000000E-01  1.66666667E-01  0.00000000E+00
                      -3.33333333E-01  1.66666667E-01  0.00000000E+00
                      -1.66666667E-01  1.66666667E-01  0.00000000E+00
                       0.00000000E+00  3.33333333E-01  0.00000000E+00
                       1.66666667E-01  3.33333333E-01  0.00000000E+00
                       3.33333333E-01  3.33333333E-01  0.00000000E+00
                       5.00000000E-01  3.33333333E-01  0.00000000E+00
                      -3.33333333E-01  3.33333333E-01  0.00000000E+00
                      -1.66666667E-01  3.33333333E-01  0.00000000E+00
                       0.00000000E+00  5.00000000E-01  0.00000000E+00
                       1.66666667E-01  5.00000000E-01  0.00000000E+00
                       3.33333333E-01  5.00000000E-01  0.00000000E+00
                       5.00000000E-01  5.00000000E-01  0.00000000E+00
                       0.00000000E+00  0.00000000E+00  1.66666667E-01
                       1.66666667E-01  0.00000000E+00  1.66666667E-01
                       3.33333333E-01  0.00000000E+00  1.66666667E-01
                       5.00000000E-01  0.00000000E+00  1.66666667E-01
                      -3.33333333E-01  0.00000000E+00  1.66666667E-01
                      -1.66666667E-01  0.00000000E+00  1.66666667E-01
                       0.00000000E+00  1.66666667E-01  1.66666667E-01
                       1.66666667E-01  1.66666667E-01  1.66666667E-01
                       3.33333333E-01  1.66666667E-01  1.66666667E-01
                       5.00000000E-01  1.66666667E-01  1.66666667E-01
                      -3.33333333E-01  1.66666667E-01  1.66666667E-01
                      -1.66666667E-01  1.66666667E-01  1.66666667E-01
                       0.00000000E+00  3.33333333E-01  1.66666667E-01
                       1.66666667E-01  3.33333333E-01  1.66666667E-01
                       3.33333333E-01  3.33333333E-01  1.66666667E-01
                       5.00000000E-01  3.33333333E-01  1.66666667E-01
                      -3.33333333E-01  3.33333333E-01  1.66666667E-01
                      -1.66666667E-01  3.33333333E-01  1.66666667E-01
                       0.00000000E+00  5.00000000E-01  1.66666667E-01
                       1.66666667E-01  5.00000000E-01  1.66666667E-01
                       3.33333333E-01  5.00000000E-01  1.66666667E-01
                       5.00000000E-01  5.00000000E-01  1.66666667E-01
                      -3.33333333E-01  5.00000000E-01  1.66666667E-01
                      -1.66666667E-01  5.00000000E-01  1.66666667E-01
                       0.00000000E+00 -3.33333333E-01  1.66666667E-01
                       1.66666667E-01 -3.33333333E-01  1.66666667E-01
                       3.33333333E-01 -3.33333333E-01  1.66666667E-01
                       5.00000000E-01 -3.33333333E-01  1.66666667E-01
                      -3.33333333E-01 -3.33333333E-01  1.66666667E-01
                      -1.66666667E-01 -3.33333333E-01  1.66666667E-01
                       outvar_i_n : Printing only first  50 k-points.
           kptopt           2
         kptrlatt        6    0    0      0    6    0      0    0    6
          kptrlen      5.75486009E+01
P           mkmem           4
            natom          12
            nband          48
           ndtset           2
            ngfft          45      45      45
             nkpt         112
            nstep         100
             nsym           1
           ntypat           2
              occ      2.000000  2.000000  2.000000  2.000000  2.000000  2.000000
                       2.000000  2.000000  2.000000  2.000000  2.000000  2.000000
                       2.000000  2.000000  2.000000  2.000000  2.000000  2.000000
                       2.000000  2.000000  2.000000  2.000000  2.000000  2.000000
                       2.000000  2.000000  2.000000  2.000000  2.000000  2.000000
                       2.000000  2.000000  2.000000  2.000000  2.000000  2.000000
                       2.000000  2.000000  2.000000  2.000000  2.000000  2.000000
                       2.000000  2.000000  2.000000  2.000000  2.000000  2.000000
        pawecutdg      2.50000000E+01 Hartree
         pawxcdev           0
            rfdir1          1       1       1
            rfdir2          0       0       0
          spgroup           1
        symmorphi           0
           toldfe      1.00000000E-10 Hartree
           tolmxf      1.00000000E-05
           tsmear      4.00000000E-02 Hartree
            typat      1  1  1  1  2  2  2  2  2  2  2  2
              wtk        0.00463    0.00926    0.00926    0.00463    0.00926    0.00926
                         0.00926    0.00926    0.00926    0.00926    0.00926    0.00926
                         0.00926    0.00926    0.00926    0.00926    0.00463    0.00926
                         0.00926    0.00463    0.00926    0.00926    0.00926    0.00926
                         0.00926    0.00926    0.00926    0.00926    0.00926    0.00926
                         0.00926    0.00926    0.00926    0.00926    0.00926    0.00926
                         0.00926    0.00926    0.00926    0.00926    0.00926    0.00926
                         0.00926    0.00926    0.00926    0.00926    0.00926    0.00926
                         0.00926    0.00926
                       outvars : Printing only first  50 k-points.
           xangst      2.3199010320E-01 -3.0588671887E-02 -6.7514342689E-02
                       2.6273600096E+00  2.5073644968E+00 -3.5173158381E-01
                       2.3189057131E-01  2.5072699390E+00  2.1860470868E+00
                       2.6273018436E+00 -3.0469954352E-02  2.4703336095E+00
                       1.5947938152E+00  1.2760868714E+00  9.5450578571E-01
                       1.2643878902E+00  1.2758180693E+00  3.4923523167E+00
                       4.2604464983E+00  3.3808276731E+00  5.2047589701E-01
                       3.6751198660E+00  3.3813675613E+00  3.0584028250E+00
                       1.5946859087E+00  3.8136995710E+00  1.1641570453E+00
                       1.2645604595E+00  3.8134361998E+00  3.7018039034E+00
                       4.2610724174E+00  8.4215595629E-01  1.5986574899E+00
                       3.6743721841E+00  8.4262925301E-01  4.1365712214E+00
            xcart      4.3839776059E-01 -5.7804212636E-02 -1.2758361772E-01
                       4.9649908706E+00  4.7382322143E+00 -6.6467636569E-01
                       4.3820967258E-01  4.7380535259E+00  4.1310303077E+00
                       4.9648809528E+00 -5.7579869006E-02  4.6682539788E+00
                       3.0137235492E+00  2.4114547088E+00  1.8037545272E+00
                       2.3893468382E+00  2.4109467464E+00  6.5995894381E+00
                       8.0510770857E+00  6.3888384047E+00  9.8355690411E-01
                       6.9449700522E+00  6.3898586455E+00  5.7795437433E+00
                       3.0135196353E+00  7.2068477423E+00  2.1999379912E+00
                       2.3896729470E+00  7.2063500428E+00  6.9953955751E+00
                       8.0522599013E+00  1.5914441186E+00  3.0210248361E+00
                       6.9435571382E+00  1.5923385197E+00  7.8169867376E+00
             xred      4.5707220000E-02 -6.0266500000E-03 -1.3301830000E-02
                       5.1764847000E-01  4.9400668000E-01 -6.9298960000E-02
                       4.5687610000E-02  4.9398805000E-01  4.3069999000E-01
                       5.1763701000E-01 -6.0032600000E-03  4.8671077000E-01
                       3.1420992000E-01  2.5141755000E-01  1.8805891000E-01
                       2.4911259000E-01  2.5136459000E-01  6.8807123000E-01
[...]
    3     -0.00056065166210     0.01414439047563    -0.00000066392522
    4      0.00066115410201     0.01414284927934    -0.00000008290415
    5     -0.00063134962804    -0.00691098104223     0.00068796051197
    6      0.00058192008537    -0.00690547494070     0.00068442507114
    7     -0.00207558461502    -0.00724334467926     0.00096712008706
    8      0.00202210259396    -0.00722881585584     0.00097651736711
    9     -0.00063176220625    -0.00691319929802    -0.00068515608911
   10      0.00058195032236    -0.00690786081172    -0.00068098428534
   11     -0.00207547444503    -0.00723978784906    -0.00096491931122
   12      0.00202272059379    -0.00722568535199    -0.00097392192666
 frms,max,avg= 5.8354988E-03 1.4145736E-02  -2.908E-05 -5.073E-07  1.246E-06 h/b

 cartesian forces (eV/Angstrom) at end:
    1     -0.02871425303498     0.72721976305518    -0.00023464504185
    2      0.03411227686538     0.72740293633845    -0.00029472430241
    3     -0.02882986519740     0.72733374085322    -0.00003414040450
    4      0.03399790801347     0.72725448936024    -0.00000426310254
    5     -0.03246530046935    -0.35537690387379     0.03537634892045
    6      0.02992353140290    -0.35509376877317     0.03519454925838
    7     -0.10673084323449    -0.37246772781979     0.04973131023133
    8      0.10398068736767    -0.37172062574384     0.05021453775975
    9     -0.03248651609236    -0.35549097116345    -0.03523213971091
   10      0.02992508625127    -0.35521645518343    -0.03501761695360
   11     -0.10672517806613    -0.37228482827260    -0.04961814179707
   12      0.10401246619401    -0.37155964877703    -0.05008107485703
 frms,max,avg= 3.0007339E-01 7.2740294E-01  -1.496E-03 -2.609E-05  6.407E-05 e/A
 length scales=  9.591433488838  9.591433488838  9.591433488838 bohr
              =  5.075568000000  5.075568000000  5.075568000000 angstroms
 prteigrs : about to open file o_DS2_EIG
 Fermi (or HOMO) energy (hartree) =   0.28098   Average Vxc (hartree)=  -0.44564
 Eigenvalues (hartree) for nkpt= 112  k points:
 kpt#   1, nband= 48, wtk=  0.00463, kpt=  0.0000  0.0000  0.0000 (reduced coord)
  -1.94250   -1.94176   -1.94171   -1.94167   -0.80662   -0.80557   -0.80540   -0.79495
  -0.79267   -0.79263   -0.79217   -0.79189   -0.79170   -0.78749   -0.78706   -0.78670
  -0.39843   -0.34473   -0.34157   -0.33643   -0.31603   -0.31309   -0.31178   -0.30537
   0.06446    0.06492    0.07492    0.09584    0.10326    0.10394    0.15945    0.15980
   0.16052    0.16721    0.17563    0.18711    0.19458    0.20280    0.21784    0.22256
   0.22754    0.23513    0.23674    0.23756    0.25003    0.26430    0.28055    0.28098
 prteigrs : prtvol=0 or 1, do not print more k-points.

--- !EnergyTerms
iteration_state     : {dtset: 2, }
comment             : Components of total free energy in Hartree
kinetic             :  1.46433805315376E+02
hartree             :  5.67193945094185E+01
xc                  : -9.09616452375356E+01
Ewald energy        : -2.69147806671560E+02
psp_core            :  1.49595106529080E+01
local_psp           : -2.07493359016903E+02
non_local_psp       : -9.14454019290092E+00
electric            :  0.00000000000000E+00
kohn_sham           : -3.58634640641198E+02
total_energy        : -3.58634640641198E+02
total_energy_eV     : -9.75894487198080E+03
band_energy         : -3.13259903766912E+01
...

Constant unreduced E calculation  - final values:
 (a. u.)
       E:   0.000000000E+00   0.000000000E+00   0.000000000E+00
       P:  -6.282828428E-06   5.573616945E-03  -4.112715298E-06

    ebar:   0.000000000E+00   0.000000000E+00   0.000000000E+00
    pbar:  -7.572662190E-04   6.717853078E-01  -4.957035511E-04

       e:   0.000000000E+00   0.000000000E+00   0.000000000E+00
       p:  -5.779925482E-04   5.127482148E-01  -3.783516965E-04

 (S.I.), that is V/m for E, and C/m^2 for P
-      E:   0.000000000E+00   0.000000000E+00   0.000000000E+00
       P:  -3.594705299E-04   3.188931641E-01  -2.353080248E-04

 Please check: COMMENT -
  As a rough estimate,
  to be below the critical field, the bandgap of your system
  should be larger than    0.00 eV.

 Cartesian components of stress tensor (hartree/bohr^3)
  sigma(1 1)= -2.49884735E-04  sigma(3 2)=  1.08657980E-07
  sigma(2 2)= -3.13325954E-04  sigma(3 1)= -3.56621969E-10
  sigma(3 3)= -6.28453548E-04  sigma(2 1)=  2.02852961E-07

-Cartesian components of stress tensor (GPa)         [Pressure=  1.1687E+01 GPa]
- sigma(1 1)= -7.35186149E+00  sigma(3 2)=  3.19682762E-03
- sigma(2 2)= -9.21836626E+00  sigma(3 1)= -1.04921788E-05
- sigma(3 3)= -1.84897386E+01  sigma(2 1)=  5.96813916E-03

== END DATASET(S) ==============================================================

 -outvars: echo values of variables after computation  --------
            acell      9.5914334888E+00  9.5914334888E+00  9.5914334888E+00 Bohr
              amu      1.78490000E+02  1.59994000E+01
         berryopt1         -1
         berryopt2          4
          chkprim           0
             ecut      2.50000000E+01 Hartree
           ecutsm      5.00000000E-01 Hartree
           etotal1    -3.5863464064E+02
           etotal2    -3.5863464064E+02
            fcart1    -5.5799236246E-04  1.4142626321E-02 -4.4392459217E-06
                       6.6283349665E-04  1.4145470809E-02 -5.5101734256E-06
                      -5.6016876850E-04  1.4143823817E-02 -8.7110945510E-07
                       6.6068767714E-04  1.4143364639E-02 -4.4121974516E-07
                      -6.3114281244E-04 -6.9108791152E-03  6.8814764956E-04
                       5.8174650355E-04 -6.9054682942E-03  6.8451024630E-04
                      -2.0758931991E-03 -7.2433913718E-03  9.6707377863E-04
                       2.0222639697E-03 -7.2287394693E-03  9.7649179671E-04
                      -6.3147116589E-04 -6.9132615142E-03 -6.8504903989E-04
                       5.8183998909E-04 -6.9078035428E-03 -6.8110967553E-04
                      -2.0756976259E-03 -7.2398532174E-03 -9.6485143133E-04
                       2.0229942982E-03 -7.2258890624E-03 -9.7395157590E-04
            fcart2    -5.5840336331E-04  1.4142173960E-02 -4.5631199388E-06
                       6.6337822226E-04  1.4145736114E-02 -5.7314756374E-06
                      -5.6065166210E-04  1.4144390476E-02 -6.6392521769E-07
                       6.6115410201E-04  1.4142849279E-02 -8.2904151953E-08
                      -6.3134962804E-04 -6.9109810422E-03  6.8796051197E-04
                       5.8192008537E-04 -6.9054749407E-03  6.8442507114E-04
                      -2.0755846150E-03 -7.2433446793E-03  9.6712008706E-04
                       2.0221025940E-03 -7.2288158558E-03  9.7651736711E-04
                      -6.3176220625E-04 -6.9131992980E-03 -6.8515608911E-04
                       5.8195032236E-04 -6.9078608117E-03 -6.8098428534E-04
                      -2.0754744450E-03 -7.2397878491E-03 -9.6491931122E-04
                       2.0227205938E-03 -7.2256853520E-03 -9.7392192666E-04
-          fftalg         512
           getwfk1          0
           getwfk2          1
           istwfk        1    0    0    1    0    0    0    0    0    0
                         0    0    0    0    0    0    1    0    0    1
                         0    0    0    0    0    0    0    0    0    0
                         0    0    0    0    0    0    0    0    0    0
                         0    0    0    0    0    0    0    0    0    0
                       outvar_i_n : Printing only first  50 k-points.
              ixc          11
           jdtset        1    2
              kpt      0.00000000E+00  0.00000000E+00  0.00000000E+00
                       1.66666667E-01  0.00000000E+00  0.00000000E+00
                       3.33333333E-01  0.00000000E+00  0.00000000E+00
                       5.00000000E-01  0.00000000E+00  0.00000000E+00
                       0.00000000E+00  1.66666667E-01  0.00000000E+00
                       1.66666667E-01  1.66666667E-01  0.00000000E+00
                       3.33333333E-01  1.66666667E-01  0.00000000E+00
                       5.00000000E-01  1.66666667E-01  0.00000000E+00
                      -3.33333333E-01  1.66666667E-01  0.00000000E+00
                      -1.66666667E-01  1.66666667E-01  0.00000000E+00
                       0.00000000E+00  3.33333333E-01  0.00000000E+00
                       1.66666667E-01  3.33333333E-01  0.00000000E+00
                       3.33333333E-01  3.33333333E-01  0.00000000E+00
                       5.00000000E-01  3.33333333E-01  0.00000000E+00
                      -3.33333333E-01  3.33333333E-01  0.00000000E+00
                      -1.66666667E-01  3.33333333E-01  0.00000000E+00
                       0.00000000E+00  5.00000000E-01  0.00000000E+00
                       1.66666667E-01  5.00000000E-01  0.00000000E+00
                       3.33333333E-01  5.00000000E-01  0.00000000E+00
                       5.00000000E-01  5.00000000E-01  0.00000000E+00
                       0.00000000E+00  0.00000000E+00  1.66666667E-01
                       1.66666667E-01  0.00000000E+00  1.66666667E-01
                       3.33333333E-01  0.00000000E+00  1.66666667E-01
                       5.00000000E-01  0.00000000E+00  1.66666667E-01
                      -3.33333333E-01  0.00000000E+00  1.66666667E-01
                      -1.66666667E-01  0.00000000E+00  1.66666667E-01
                       0.00000000E+00  1.66666667E-01  1.66666667E-01
                       1.66666667E-01  1.66666667E-01  1.66666667E-01
                       3.33333333E-01  1.66666667E-01  1.66666667E-01
                       5.00000000E-01  1.66666667E-01  1.66666667E-01
                      -3.33333333E-01  1.66666667E-01  1.66666667E-01
                      -1.66666667E-01  1.66666667E-01  1.66666667E-01
                       0.00000000E+00  3.33333333E-01  1.66666667E-01
                       1.66666667E-01  3.33333333E-01  1.66666667E-01
                       3.33333333E-01  3.33333333E-01  1.66666667E-01
                       5.00000000E-01  3.33333333E-01  1.66666667E-01
                      -3.33333333E-01  3.33333333E-01  1.66666667E-01
                      -1.66666667E-01  3.33333333E-01  1.66666667E-01
                       0.00000000E+00  5.00000000E-01  1.66666667E-01
                       1.66666667E-01  5.00000000E-01  1.66666667E-01
                       3.33333333E-01  5.00000000E-01  1.66666667E-01
                       5.00000000E-01  5.00000000E-01  1.66666667E-01
                      -3.33333333E-01  5.00000000E-01  1.66666667E-01
                      -1.66666667E-01  5.00000000E-01  1.66666667E-01
                       0.00000000E+00 -3.33333333E-01  1.66666667E-01
                       1.66666667E-01 -3.33333333E-01  1.66666667E-01
                       3.33333333E-01 -3.33333333E-01  1.66666667E-01
                       5.00000000E-01 -3.33333333E-01  1.66666667E-01
                      -3.33333333E-01 -3.33333333E-01  1.66666667E-01
                      -1.66666667E-01 -3.33333333E-01  1.66666667E-01
                       outvar_i_n : Printing only first  50 k-points.
           kptopt           2
         kptrlatt        6    0    0      0    6    0      0    0    6
          kptrlen      5.75486009E+01
P           mkmem           4
            natom          12
            nband          48
           ndtset           2
            ngfft          45      45      45
             nkpt         112
            nstep         100
             nsym           1
           ntypat           2
              occ      2.000000  2.000000  2.000000  2.000000  2.000000  2.000000
                       2.000000  2.000000  2.000000  2.000000  2.000000  2.000000
                       2.000000  2.000000  2.000000  2.000000  2.000000  2.000000
                       2.000000  2.000000  2.000000  2.000000  2.000000  2.000000
                       2.000000  2.000000  2.000000  2.000000  2.000000  2.000000
                       2.000000  2.000000  2.000000  2.000000  2.000000  2.000000
                       2.000000  2.000000  2.000000  2.000000  2.000000  2.000000
                       2.000000  2.000000  2.000000  2.000000  2.000000  2.000000
        pawecutdg      2.50000000E+01 Hartree
         pawxcdev           0
            rfdir1          1       1       1
            rfdir2          0       0       0
          spgroup           1
           strten1    -2.4988034891E-04 -3.1332183830E-04 -6.2845032271E-04
                       1.0882314394E-07  9.6891718440E-11  2.0203732915E-07
           strten2    -2.4988473514E-04 -3.1332595352E-04 -6.2845354769E-04
                       1.0865798048E-07 -3.5662196930E-10  2.0285296095E-07
        symmorphi           0
           toldfe      1.00000000E-10 Hartree
           tolmxf      1.00000000E-05
           tsmear      4.00000000E-02 Hartree
            typat      1  1  1  1  2  2  2  2  2  2  2  2
              wtk        0.00463    0.00926    0.00926    0.00463    0.00926    0.00926
                         0.00926    0.00926    0.00926    0.00926    0.00926    0.00926
                         0.00926    0.00926    0.00926    0.00926    0.00463    0.00926
                         0.00926    0.00463    0.00926    0.00926    0.00926    0.00926
                         0.00926    0.00926    0.00926    0.00926    0.00926    0.00926
                         0.00926    0.00926    0.00926    0.00926    0.00926    0.00926
                         0.00926    0.00926    0.00926    0.00926    0.00926    0.00926
                         0.00926    0.00926    0.00926    0.00926    0.00926    0.00926
                         0.00926    0.00926
                       outvars : Printing only first  50 k-points.
           xangst      2.3199010320E-01 -3.0588671887E-02 -6.7514342689E-02
                       2.6273600096E+00  2.5073644968E+00 -3.5173158381E-01
                       2.3189057131E-01  2.5072699390E+00  2.1860470868E+00
                       2.6273018436E+00 -3.0469954352E-02  2.4703336095E+00
                       1.5947938152E+00  1.2760868714E+00  9.5450578571E-01
                       1.2643878902E+00  1.2758180693E+00  3.4923523167E+00
                       4.2604464983E+00  3.3808276731E+00  5.2047589701E-01
                       3.6751198660E+00  3.3813675613E+00  3.0584028250E+00
                       1.5946859087E+00  3.8136995710E+00  1.1641570453E+00
                       1.2645604595E+00  3.8134361998E+00  3.7018039034E+00
                       4.2610724174E+00  8.4215595629E-01  1.5986574899E+00
                       3.6743721841E+00  8.4262925301E-01  4.1365712214E+00
            xcart      4.3839776059E-01 -5.7804212636E-02 -1.2758361772E-01
                       4.9649908706E+00  4.7382322143E+00 -6.6467636569E-01
                       4.3820967258E-01  4.7380535259E+00  4.1310303077E+00
                       4.9648809528E+00 -5.7579869006E-02  4.6682539788E+00
                       3.0137235492E+00  2.4114547088E+00  1.8037545272E+00
                       2.3893468382E+00  2.4109467464E+00  6.5995894381E+00
                       8.0510770857E+00  6.3888384047E+00  9.8355690411E-01
                       6.9449700522E+00  6.3898586455E+00  5.7795437433E+00
                       3.0135196353E+00  7.2068477423E+00  2.1999379912E+00
                       2.3896729470E+00  7.2063500428E+00  6.9953955751E+00
                       8.0522599013E+00  1.5914441186E+00  3.0210248361E+00
                       6.9435571382E+00  1.5923385197E+00  7.8169867376E+00
             xred      4.5707220000E-02 -6.0266500000E-03 -1.3301830000E-02
                       5.1764847000E-01  4.9400668000E-01 -6.9298960000E-02
                       4.5687610000E-02  4.9398805000E-01  4.3069999000E-01
                       5.1763701000E-01 -6.0032600000E-03  4.8671077000E-01
                       3.1420992000E-01  2.5141755000E-01  1.8805891000E-01
                       2.4911259000E-01  2.5136459000E-01  6.8807123000E-01
                       8.3940290000E-01  6.6609839000E-01  1.0254535000E-01
                       7.2408051000E-01  6.6620476000E-01  6.0257351000E-01
                       3.1418866000E-01  7.5138380000E-01  2.2936488000E-01
                       2.4914659000E-01  7.5133191000E-01  7.2933786000E-01
                       8.3952622000E-01  1.6592349000E-01  3.1497115000E-01
                       7.2393320000E-01  1.6601674000E-01  8.1499671000E-01
            znucl       72.00000    8.00000

- Timing analysis has been suppressed with timopt=0

 Suggested references for the acknowledgment of ABINIT usage.

 Calculation completed.
.Delivered   0 WARNINGs and   2 COMMENTs to log file.