.Version 9.4.2 of ABINIT

 ABINIT is a project of the Universite Catholique de Louvain,
 Corning Inc. and other collaborators, see ~abinit/doc/developers/contributors.txt .
 acknowledgments of the ABINIT effort.

.Starting date : Mon 21 Jun 2021.
- ( at 16h08 )

- input  file    -> /p/work1/jiahaoz/HfO4/CUBIC_ITERATE/itertwo/P-0.20/itenoe10
- output file    -> /p/work1/jiahaoz/HfO4/CUBIC_ITERATE/itertwo/P-0.20/itenoe10.abo
- root for input  files -> i
- root for output files -> o

 DATASET    1 : space group P1 (#  1); Bravais aP (primitive triclinic)
     intxc =       0    ionmov =       0      iscf =       7    lmnmax =       8
     lnmax =       8     mgfft =      45  mpssoang =       4    mqgrid =    3001
     natom =      12  nloc_mem =       1    nspden =       1   nspinor =       1
    nsppol =       1      nsym =       1    n1xccc =    2501    ntypat =       2
    occopt =       1   xclevel =       2
-    mband =          48        mffmem =           1         mkmem =           4
       mpw =        5294          nfft =       91125          nkpt =         112
  Rough estimation (10% accuracy) of disk space for files :

 DATASET    2 : space group P1 (#  1); Bravais aP (primitive triclinic)
     intxc =       0    ionmov =       0      iscf =       7    lmnmax =       8
     lnmax =       8     mgfft =      45  mpssoang =       4    mqgrid =    3001
     natom =      12  nloc_mem =       1    nspden =       1   nspinor =       1
    nsppol =       1      nsym =       1    n1xccc =    2501    ntypat =       2
    occopt =       1   xclevel =       2
-    mband =          48        mffmem =           1         mkmem =           4
       mpw =        5294          nfft =       91125          nkpt =         112
  Rough estimation (10% accuracy) of disk space for files :

------------- Echo of variables that govern the present computation ------------
-
- outvars: echo of selected default values
-   iomode0 =  0 , fftalg0 =512 , wfoptalg0 =  0
-
- outvars: echo of global parameters not present in the input file
-  max_nthreads =    0
-
 -outvars: echo values of preprocessed input variables --------
            acell      9.5914334888E+00  9.5914334888E+00  9.5914334888E+00 Bohr
              amu      1.78490000E+02  1.59994000E+01
         berryopt1         -1
         berryopt2          4
          chkprim           0
             ecut      2.50000000E+01 Hartree
           ecutsm      5.00000000E-01 Hartree
-          fftalg         512
           getwfk1          0
           getwfk2          1
           istwfk        1    0    0    1    0    0    0    0    0    0
                         0    0    0    0    0    0    1    0    0    1
                         0    0    0    0    0    0    0    0    0    0
                         0    0    0    0    0    0    0    0    0    0
                         0    0    0    0    0    0    0    0    0    0
                       outvar_i_n : Printing only first  50 k-points.
              ixc          11
           jdtset        1    2
              kpt      0.00000000E+00  0.00000000E+00  0.00000000E+00
                       1.66666667E-01  0.00000000E+00  0.00000000E+00
                       3.33333333E-01  0.00000000E+00  0.00000000E+00
                       5.00000000E-01  0.00000000E+00  0.00000000E+00
                       0.00000000E+00  1.66666667E-01  0.00000000E+00
                       1.66666667E-01  1.66666667E-01  0.00000000E+00
                       3.33333333E-01  1.66666667E-01  0.00000000E+00
                       5.00000000E-01  1.66666667E-01  0.00000000E+00
                      -3.33333333E-01  1.66666667E-01  0.00000000E+00
                      -1.66666667E-01  1.66666667E-01  0.00000000E+00
                       0.00000000E+00  3.33333333E-01  0.00000000E+00
                       1.66666667E-01  3.33333333E-01  0.00000000E+00
                       3.33333333E-01  3.33333333E-01  0.00000000E+00
                       5.00000000E-01  3.33333333E-01  0.00000000E+00
                      -3.33333333E-01  3.33333333E-01  0.00000000E+00
                      -1.66666667E-01  3.33333333E-01  0.00000000E+00
                       0.00000000E+00  5.00000000E-01  0.00000000E+00
                       1.66666667E-01  5.00000000E-01  0.00000000E+00
                       3.33333333E-01  5.00000000E-01  0.00000000E+00
                       5.00000000E-01  5.00000000E-01  0.00000000E+00
                       0.00000000E+00  0.00000000E+00  1.66666667E-01
                       1.66666667E-01  0.00000000E+00  1.66666667E-01
                       3.33333333E-01  0.00000000E+00  1.66666667E-01
                       5.00000000E-01  0.00000000E+00  1.66666667E-01
                      -3.33333333E-01  0.00000000E+00  1.66666667E-01
                      -1.66666667E-01  0.00000000E+00  1.66666667E-01
                       0.00000000E+00  1.66666667E-01  1.66666667E-01
                       1.66666667E-01  1.66666667E-01  1.66666667E-01
                       3.33333333E-01  1.66666667E-01  1.66666667E-01
                       5.00000000E-01  1.66666667E-01  1.66666667E-01
                      -3.33333333E-01  1.66666667E-01  1.66666667E-01
                      -1.66666667E-01  1.66666667E-01  1.66666667E-01
                       0.00000000E+00  3.33333333E-01  1.66666667E-01
                       1.66666667E-01  3.33333333E-01  1.66666667E-01
                       3.33333333E-01  3.33333333E-01  1.66666667E-01
                       5.00000000E-01  3.33333333E-01  1.66666667E-01
                      -3.33333333E-01  3.33333333E-01  1.66666667E-01
                      -1.66666667E-01  3.33333333E-01  1.66666667E-01
                       0.00000000E+00  5.00000000E-01  1.66666667E-01
                       1.66666667E-01  5.00000000E-01  1.66666667E-01
                       3.33333333E-01  5.00000000E-01  1.66666667E-01
                       5.00000000E-01  5.00000000E-01  1.66666667E-01
                      -3.33333333E-01  5.00000000E-01  1.66666667E-01
                      -1.66666667E-01  5.00000000E-01  1.66666667E-01
                       0.00000000E+00 -3.33333333E-01  1.66666667E-01
                       1.66666667E-01 -3.33333333E-01  1.66666667E-01
                       3.33333333E-01 -3.33333333E-01  1.66666667E-01
                       5.00000000E-01 -3.33333333E-01  1.66666667E-01
                      -3.33333333E-01 -3.33333333E-01  1.66666667E-01
                      -1.66666667E-01 -3.33333333E-01  1.66666667E-01
                       outvar_i_n : Printing only first  50 k-points.
           kptopt           2
         kptrlatt        6    0    0      0    6    0      0    0    6
          kptrlen      5.75486009E+01
P           mkmem           4
            natom          12
            nband          48
           ndtset           2
            ngfft          45      45      45
             nkpt         112
            nstep         100
             nsym           1
           ntypat           2
              occ      2.000000  2.000000  2.000000  2.000000  2.000000  2.000000
                       2.000000  2.000000  2.000000  2.000000  2.000000  2.000000
                       2.000000  2.000000  2.000000  2.000000  2.000000  2.000000
                       2.000000  2.000000  2.000000  2.000000  2.000000  2.000000
                       2.000000  2.000000  2.000000  2.000000  2.000000  2.000000
                       2.000000  2.000000  2.000000  2.000000  2.000000  2.000000
                       2.000000  2.000000  2.000000  2.000000  2.000000  2.000000
                       2.000000  2.000000  2.000000  2.000000  2.000000  2.000000
        pawecutdg      2.50000000E+01 Hartree
         pawxcdev           0
            rfdir1          1       1       1
            rfdir2          0       0       0
          spgroup           1
        symmorphi           0
           toldfe      1.00000000E-10 Hartree
           tolmxf      1.00000000E-05
           tsmear      4.00000000E-02 Hartree
            typat      1  1  1  1  2  2  2  2  2  2  2  2
              wtk        0.00463    0.00926    0.00926    0.00463    0.00926    0.00926
                         0.00926    0.00926    0.00926    0.00926    0.00926    0.00926
                         0.00926    0.00926    0.00926    0.00926    0.00463    0.00926
                         0.00926    0.00463    0.00926    0.00926    0.00926    0.00926
                         0.00926    0.00926    0.00926    0.00926    0.00926    0.00926
                         0.00926    0.00926    0.00926    0.00926    0.00926    0.00926
                         0.00926    0.00926    0.00926    0.00926    0.00926    0.00926
                         0.00926    0.00926    0.00926    0.00926    0.00926    0.00926
                         0.00926    0.00926
                       outvars : Printing only first  50 k-points.
           xangst      2.3708018733E-01 -2.9390888595E-02 -1.7860010190E-02
                       2.6211605586E+00  2.5082913463E+00 -3.1755768295E-01
                       2.3724712276E-01  2.5083300729E+00  2.2202751440E+00
                       2.6212943505E+00 -2.9459307252E-02  2.5198161340E+00
                       1.6132376173E+00  1.2614956285E+00  1.0133355778E+00
                       1.2455560610E+00  1.2616425662E+00  3.5511310486E+00
                       4.2946167955E+00  3.3168693749E+00  5.2976053204E-01
                       3.6392744283E+00  3.3165441833E+00  3.0671915263E+00
                       1.6133847580E+00  3.7994128114E+00  1.1891562986E+00
                       1.2452198046E+00  3.7995573129E+00  3.7269936936E+00
                       4.2939364664E+00  7.8036660053E-01  1.6723380386E+00
                       3.6403537479E+00  7.8030787621E-01  4.2099190159E+00
            xcart      4.4801662558E-01 -5.5540730246E-02 -3.3750527989E-02
                       4.9532756060E+00  4.7399837059E+00 -6.0009705218E-01
                       4.4833208783E-01  4.7400568886E+00  4.1957119618E+00
                       4.9535284362E+00 -5.5670022770E-02  4.7617623985E+00
                       3.0485772839E+00  2.3838812558E+00  1.9149267227E+00
                       2.3537598385E+00  2.3841589278E+00  6.7106651438E+00
                       8.1156495893E+00  6.2679747371E+00  1.0011023216E+00
                       6.8772319919E+00  6.2673602140E+00  5.7961519818E+00
                       3.0488553395E+00  7.1798496794E+00  2.2471797336E+00
                       2.3531244060E+00  7.1801227475E+00  7.0429973799E+00
                       8.1143639535E+00  1.4746791582E+00  3.1602608946E+00
                       6.8792716103E+00  1.4745681854E+00  7.9555939816E+00
             xred      4.6710080000E-02 -5.7906600000E-03 -3.5188200000E-03
                       5.1642704000E-01  4.9418929000E-01 -6.2565940000E-02
                       4.6742970000E-02  4.9419692000E-01  4.3744368000E-01
                       5.1645340000E-01 -5.8041400000E-03  4.9645993000E-01
                       3.1784376000E-01  2.4854275000E-01  1.9964969000E-01
                       2.4540230000E-01  2.4857170000E-01  6.9965195000E-01
[...]
    3     -0.00041167635883     0.01011498270961    -0.00001292762310
    4      0.00052868797806     0.01012077879250     0.00008516890330
    5     -0.00036463838429    -0.00499567089240     0.00053916871733
    6      0.00031097974172    -0.00499176186227     0.00053421504887
    7     -0.00142739755989    -0.00512692425752     0.00067968932038
    8      0.00136901953505    -0.00511010613895     0.00069277660380
    9     -0.00036841927616    -0.00499828812676    -0.00057384969866
   10      0.00031498635891    -0.00499399337569    -0.00057004818845
   11     -0.00141926207813    -0.00513542802837    -0.00071185163549
   12      0.00136046843130    -0.00511868409434    -0.00072294254230
 frms,max,avg= 4.1719824E-03 1.0120779E-02  -3.127E-05  4.131E-07 -3.716E-08 h/b

 cartesian forces (eV/Angstrom) at end:
    1     -0.02141456566744     0.52017782256779     0.00406367632726
    2      0.02692966485056     0.52035252532242    -0.00094744302670
    3     -0.02116924773854     0.52013328008159    -0.00066476505181
    4      0.02718622661694     0.52043132662240     0.00437956072775
    5     -0.01875045803905    -0.25688770431639     0.02772516785370
    6      0.01599121993040    -0.25668669392197     0.02747044000147
    7     -0.07339972752521    -0.26363702315200     0.03495102718391
    8      0.07039780904266    -0.26277220079613     0.03562400229860
    9     -0.01894487930009    -0.25702228790723    -0.02950853546746
   10      0.01619724845231    -0.25680144294633    -0.02931305396887
   11     -0.07298138426788    -0.26407430459388    -0.03660487978353
   12      0.06995809364535    -0.26321329696026    -0.03717519709431
 frms,max,avg= 2.1453194E-01 5.2043133E-01  -1.608E-03  2.124E-05 -1.911E-06 e/A
 length scales=  9.591433488838  9.591433488838  9.591433488838 bohr
              =  5.075568000000  5.075568000000  5.075568000000 angstroms
 prteigrs : about to open file o_DS2_EIG
 Fermi (or HOMO) energy (hartree) =   0.28025   Average Vxc (hartree)=  -0.44584
 Eigenvalues (hartree) for nkpt= 112  k points:
 kpt#   1, nband= 48, wtk=  0.00463, kpt=  0.0000  0.0000  0.0000 (reduced coord)
  -1.94300   -1.94227   -1.94218   -1.94217   -0.80683   -0.80585   -0.80576   -0.79544
  -0.79289   -0.79284   -0.79260   -0.79245   -0.79190   -0.78771   -0.78748   -0.78707
  -0.39858   -0.34373   -0.34303   -0.33657   -0.31706   -0.31234   -0.31102   -0.30695
   0.06596    0.06707    0.07516    0.09728    0.10491    0.10569    0.15945    0.15976
   0.15992    0.16480    0.17612    0.19166    0.19252    0.20236    0.21626    0.21697
   0.22811    0.23416    0.23502    0.23679    0.24847    0.26511    0.28004    0.28025
 prteigrs : prtvol=0 or 1, do not print more k-points.

--- !EnergyTerms
iteration_state     : {dtset: 2, }
comment             : Components of total free energy in Hartree
kinetic             :  1.46385290514999E+02
hartree             :  5.65687728301128E+01
xc                  : -9.09494235730531E+01
Ewald energy        : -2.69281671801150E+02
psp_core            :  1.49595106529080E+01
local_psp           : -2.07183165514758E+02
non_local_psp       : -9.13702576674865E+00
electric            :  0.00000000000000E+00
kohn_sham           : -3.58637712657690E+02
total_energy        : -3.58637712657690E+02
total_energy_eV     : -9.75902846580079E+03
band_energy         : -3.13420564766131E+01
...

Constant unreduced E calculation  - final values:
 (a. u.)
       E:   0.000000000E+00   0.000000000E+00   0.000000000E+00
       P:  -5.999125718E-06   7.098068964E-03  -2.046262884E-06

    ebar:   0.000000000E+00   0.000000000E+00   0.000000000E+00
    pbar:  -7.230716709E-04   8.555267596E-01  -2.466350585E-04

       e:   0.000000000E+00   0.000000000E+00   0.000000000E+00
       p:  -5.518931482E-04   6.529910875E-01  -1.882471743E-04

 (S.I.), that is V/m for E, and C/m^2 for P
-      E:   0.000000000E+00   0.000000000E+00   0.000000000E+00
       P:  -3.432385471E-04   4.061143228E-01  -1.170764428E-04

 Please check: COMMENT -
  As a rough estimate,
  to be below the critical field, the bandgap of your system
  should be larger than    0.00 eV.

 Cartesian components of stress tensor (hartree/bohr^3)
  sigma(1 1)= -2.30187036E-04  sigma(3 2)= -3.20170173E-08
  sigma(2 2)= -2.83007798E-04  sigma(3 1)=  4.78785146E-08
  sigma(3 3)= -6.01138664E-04  sigma(2 1)=  3.51352873E-09

-Cartesian components of stress tensor (GPa)         [Pressure=  1.0928E+01 GPa]
- sigma(1 1)= -6.77233526E+00  sigma(3 2)= -9.41973011E-04
- sigma(2 2)= -8.32637548E+00  sigma(3 1)=  1.40863430E-03
- sigma(3 3)= -1.76861071E+01  sigma(2 1)=  1.03371567E-04

== END DATASET(S) ==============================================================

 -outvars: echo values of variables after computation  --------
            acell      9.5914334888E+00  9.5914334888E+00  9.5914334888E+00 Bohr
              amu      1.78490000E+02  1.59994000E+01
         berryopt1         -1
         berryopt2          4
          chkprim           0
             ecut      2.50000000E+01 Hartree
           ecutsm      5.00000000E-01 Hartree
           etotal1    -3.5863771266E+02
           etotal2    -3.5863771266E+02
            fcart1    -4.1616742490E-04  1.0115901830E-02  7.8691656515E-05
                       5.2338569300E-04  1.0118945405E-02 -1.8095346018E-05
                      -4.1091219892E-04  1.0115110789E-02 -1.3165392556E-05
                       5.2797403968E-04  1.0121061098E-02  8.5223005203E-05
                      -3.6448752796E-04 -4.9956414331E-03  5.3936870582E-04
                       3.1074032870E-04 -4.9917088335E-03  5.3420463635E-04
                      -1.4277370842E-03 -5.1269650074E-03  6.7975535739E-04
                       1.3691136711E-03 -5.1101593552E-03  6.9265708951E-04
                      -3.6810354640E-04 -4.9983802037E-03 -5.7382755485E-04
                       3.1489915174E-04 -4.9939161284E-03 -5.7006595485E-04
                      -1.4194590706E-03 -5.1354945971E-03 -7.1176132996E-04
                       1.3607539688E-03 -5.1187535632E-03 -7.2298487256E-04
            fcart2    -4.1644703339E-04  1.0115848923E-02  7.9025929241E-05
                       5.2369864566E-04  1.0119246351E-02 -1.8424834942E-05
                      -4.1167635883E-04  1.0114982710E-02 -1.2927623097E-05
                       5.2868797806E-04  1.0120778792E-02  8.5168903305E-05
                      -3.6463838429E-04 -4.9956708924E-03  5.3916871733E-04
                       3.1097974172E-04 -4.9917618623E-03  5.3421504887E-04
                      -1.4273975599E-03 -5.1269242575E-03  6.7968932038E-04
                       1.3690195350E-03 -5.1101061390E-03  6.9277660380E-04
                      -3.6841927616E-04 -4.9982881268E-03 -5.7384969866E-04
                       3.1498635891E-04 -4.9939933757E-03 -5.7004818845E-04
                      -1.4192620781E-03 -5.1354280284E-03 -7.1185163549E-04
                       1.3604684313E-03 -5.1186840943E-03 -7.2294254230E-04
-          fftalg         512
           getwfk1          0
           getwfk2          1
           istwfk        1    0    0    1    0    0    0    0    0    0
                         0    0    0    0    0    0    1    0    0    1
                         0    0    0    0    0    0    0    0    0    0
                         0    0    0    0    0    0    0    0    0    0
                         0    0    0    0    0    0    0    0    0    0
                       outvar_i_n : Printing only first  50 k-points.
              ixc          11
           jdtset        1    2
              kpt      0.00000000E+00  0.00000000E+00  0.00000000E+00
                       1.66666667E-01  0.00000000E+00  0.00000000E+00
                       3.33333333E-01  0.00000000E+00  0.00000000E+00
                       5.00000000E-01  0.00000000E+00  0.00000000E+00
                       0.00000000E+00  1.66666667E-01  0.00000000E+00
                       1.66666667E-01  1.66666667E-01  0.00000000E+00
                       3.33333333E-01  1.66666667E-01  0.00000000E+00
                       5.00000000E-01  1.66666667E-01  0.00000000E+00
                      -3.33333333E-01  1.66666667E-01  0.00000000E+00
                      -1.66666667E-01  1.66666667E-01  0.00000000E+00
                       0.00000000E+00  3.33333333E-01  0.00000000E+00
                       1.66666667E-01  3.33333333E-01  0.00000000E+00
                       3.33333333E-01  3.33333333E-01  0.00000000E+00
                       5.00000000E-01  3.33333333E-01  0.00000000E+00
                      -3.33333333E-01  3.33333333E-01  0.00000000E+00
                      -1.66666667E-01  3.33333333E-01  0.00000000E+00
                       0.00000000E+00  5.00000000E-01  0.00000000E+00
                       1.66666667E-01  5.00000000E-01  0.00000000E+00
                       3.33333333E-01  5.00000000E-01  0.00000000E+00
                       5.00000000E-01  5.00000000E-01  0.00000000E+00
                       0.00000000E+00  0.00000000E+00  1.66666667E-01
                       1.66666667E-01  0.00000000E+00  1.66666667E-01
                       3.33333333E-01  0.00000000E+00  1.66666667E-01
                       5.00000000E-01  0.00000000E+00  1.66666667E-01
                      -3.33333333E-01  0.00000000E+00  1.66666667E-01
                      -1.66666667E-01  0.00000000E+00  1.66666667E-01
                       0.00000000E+00  1.66666667E-01  1.66666667E-01
                       1.66666667E-01  1.66666667E-01  1.66666667E-01
                       3.33333333E-01  1.66666667E-01  1.66666667E-01
                       5.00000000E-01  1.66666667E-01  1.66666667E-01
                      -3.33333333E-01  1.66666667E-01  1.66666667E-01
                      -1.66666667E-01  1.66666667E-01  1.66666667E-01
                       0.00000000E+00  3.33333333E-01  1.66666667E-01
                       1.66666667E-01  3.33333333E-01  1.66666667E-01
                       3.33333333E-01  3.33333333E-01  1.66666667E-01
                       5.00000000E-01  3.33333333E-01  1.66666667E-01
                      -3.33333333E-01  3.33333333E-01  1.66666667E-01
                      -1.66666667E-01  3.33333333E-01  1.66666667E-01
                       0.00000000E+00  5.00000000E-01  1.66666667E-01
                       1.66666667E-01  5.00000000E-01  1.66666667E-01
                       3.33333333E-01  5.00000000E-01  1.66666667E-01
                       5.00000000E-01  5.00000000E-01  1.66666667E-01
                      -3.33333333E-01  5.00000000E-01  1.66666667E-01
                      -1.66666667E-01  5.00000000E-01  1.66666667E-01
                       0.00000000E+00 -3.33333333E-01  1.66666667E-01
                       1.66666667E-01 -3.33333333E-01  1.66666667E-01
                       3.33333333E-01 -3.33333333E-01  1.66666667E-01
                       5.00000000E-01 -3.33333333E-01  1.66666667E-01
                      -3.33333333E-01 -3.33333333E-01  1.66666667E-01
                      -1.66666667E-01 -3.33333333E-01  1.66666667E-01
                       outvar_i_n : Printing only first  50 k-points.
           kptopt           2
         kptrlatt        6    0    0      0    6    0      0    0    6
          kptrlen      5.75486009E+01
P           mkmem           4
            natom          12
            nband          48
           ndtset           2
            ngfft          45      45      45
             nkpt         112
            nstep         100
             nsym           1
           ntypat           2
              occ      2.000000  2.000000  2.000000  2.000000  2.000000  2.000000
                       2.000000  2.000000  2.000000  2.000000  2.000000  2.000000
                       2.000000  2.000000  2.000000  2.000000  2.000000  2.000000
                       2.000000  2.000000  2.000000  2.000000  2.000000  2.000000
                       2.000000  2.000000  2.000000  2.000000  2.000000  2.000000
                       2.000000  2.000000  2.000000  2.000000  2.000000  2.000000
                       2.000000  2.000000  2.000000  2.000000  2.000000  2.000000
                       2.000000  2.000000  2.000000  2.000000  2.000000  2.000000
        pawecutdg      2.50000000E+01 Hartree
         pawxcdev           0
            rfdir1          1       1       1
            rfdir2          0       0       0
          spgroup           1
           strten1    -2.3018497423E-04 -2.8300624632E-04 -6.0113765576E-04
                      -3.2036401794E-08  4.6780494563E-08  3.7595906435E-09
           strten2    -2.3018703557E-04 -2.8300779798E-04 -6.0113866394E-04
                      -3.2017017277E-08  4.7878514640E-08  3.5135287253E-09
        symmorphi           0
           toldfe      1.00000000E-10 Hartree
           tolmxf      1.00000000E-05
           tsmear      4.00000000E-02 Hartree
            typat      1  1  1  1  2  2  2  2  2  2  2  2
              wtk        0.00463    0.00926    0.00926    0.00463    0.00926    0.00926
                         0.00926    0.00926    0.00926    0.00926    0.00926    0.00926
                         0.00926    0.00926    0.00926    0.00926    0.00463    0.00926
                         0.00926    0.00463    0.00926    0.00926    0.00926    0.00926
                         0.00926    0.00926    0.00926    0.00926    0.00926    0.00926
                         0.00926    0.00926    0.00926    0.00926    0.00926    0.00926
                         0.00926    0.00926    0.00926    0.00926    0.00926    0.00926
                         0.00926    0.00926    0.00926    0.00926    0.00926    0.00926
                         0.00926    0.00926
                       outvars : Printing only first  50 k-points.
           xangst      2.3708018733E-01 -2.9390888595E-02 -1.7860010190E-02
                       2.6211605586E+00  2.5082913463E+00 -3.1755768295E-01
                       2.3724712276E-01  2.5083300729E+00  2.2202751440E+00
                       2.6212943505E+00 -2.9459307252E-02  2.5198161340E+00
                       1.6132376173E+00  1.2614956285E+00  1.0133355778E+00
                       1.2455560610E+00  1.2616425662E+00  3.5511310486E+00
                       4.2946167955E+00  3.3168693749E+00  5.2976053204E-01
                       3.6392744283E+00  3.3165441833E+00  3.0671915263E+00
                       1.6133847580E+00  3.7994128114E+00  1.1891562986E+00
                       1.2452198046E+00  3.7995573129E+00  3.7269936936E+00
                       4.2939364664E+00  7.8036660053E-01  1.6723380386E+00
                       3.6403537479E+00  7.8030787621E-01  4.2099190159E+00
            xcart      4.4801662558E-01 -5.5540730246E-02 -3.3750527989E-02
                       4.9532756060E+00  4.7399837059E+00 -6.0009705218E-01
                       4.4833208783E-01  4.7400568886E+00  4.1957119618E+00
                       4.9535284362E+00 -5.5670022770E-02  4.7617623985E+00
                       3.0485772839E+00  2.3838812558E+00  1.9149267227E+00
                       2.3537598385E+00  2.3841589278E+00  6.7106651438E+00
                       8.1156495893E+00  6.2679747371E+00  1.0011023216E+00
                       6.8772319919E+00  6.2673602140E+00  5.7961519818E+00
                       3.0488553395E+00  7.1798496794E+00  2.2471797336E+00
                       2.3531244060E+00  7.1801227475E+00  7.0429973799E+00
                       8.1143639535E+00  1.4746791582E+00  3.1602608946E+00
                       6.8792716103E+00  1.4745681854E+00  7.9555939816E+00
             xred      4.6710080000E-02 -5.7906600000E-03 -3.5188200000E-03
                       5.1642704000E-01  4.9418929000E-01 -6.2565940000E-02
                       4.6742970000E-02  4.9419692000E-01  4.3744368000E-01
                       5.1645340000E-01 -5.8041400000E-03  4.9645993000E-01
                       3.1784376000E-01  2.4854275000E-01  1.9964969000E-01
                       2.4540230000E-01  2.4857170000E-01  6.9965195000E-01
                       8.4613521000E-01  6.5349718000E-01  1.0437463000E-01
                       7.1701816000E-01  6.5343311000E-01  6.0430508000E-01
                       3.1787275000E-01  7.4856899000E-01  2.3429029000E-01
                       2.4533605000E-01  7.4859746000E-01  7.3430081000E-01
                       8.4600117000E-01  1.5374961000E-01  3.2948786000E-01
                       7.1723081000E-01  1.5373804000E-01  8.2944786000E-01
            znucl       72.00000    8.00000

- Timing analysis has been suppressed with timopt=0

 Suggested references for the acknowledgment of ABINIT usage.

 Calculation completed.
.Delivered   0 WARNINGs and   2 COMMENTs to log file.