.Version 9.4.2 of ABINIT

 ABINIT is a project of the Universite Catholique de Louvain,
 Corning Inc. and other collaborators, see ~abinit/doc/developers/contributors.txt .
 acknowledgments of the ABINIT effort.

.Starting date : Tue 22 Jun 2021.
- ( at 10h08 )

- input  file    -> /p/work1/jiahaoz/HfO4/CUBIC_ITERATE/iterone/P0.20/itenoe10
- output file    -> /p/work1/jiahaoz/HfO4/CUBIC_ITERATE/iterone/P0.20/itenoe10.abo
- root for input  files -> i
- root for output files -> o

 DATASET    1 : space group Pn c 2 (# 30); Bravais oP (primitive ortho.)
     intxc =       0    ionmov =       0      iscf =       7    lmnmax =       8
     lnmax =       8     mgfft =      45  mpssoang =       4    mqgrid =    3001
     natom =      12  nloc_mem =       1    nspden =       1   nspinor =       1
    nsppol =       1      nsym =       2    n1xccc =    2501    ntypat =       2
    occopt =       1   xclevel =       2
-    mband =          48        mffmem =           1         mkmem =           4
       mpw =        5294          nfft =       91125          nkpt =         112
  Rough estimation (10% accuracy) of disk space for files :

 DATASET    2 : space group Pn c 2 (# 30); Bravais oP (primitive ortho.)
     intxc =       0    ionmov =       0      iscf =       7    lmnmax =       8
     lnmax =       8     mgfft =      45  mpssoang =       4    mqgrid =    3001
     natom =      12  nloc_mem =       1    nspden =       1   nspinor =       1
    nsppol =       1      nsym =       2    n1xccc =    2501    ntypat =       2
    occopt =       1   xclevel =       2
-    mband =          48        mffmem =           1         mkmem =           4
       mpw =        5294          nfft =       91125          nkpt =         112
  Rough estimation (10% accuracy) of disk space for files :

------------- Echo of variables that govern the present computation ------------
-
- outvars: echo of selected default values
-   iomode0 =  0 , fftalg0 =512 , wfoptalg0 =  0
-
- outvars: echo of global parameters not present in the input file
-  max_nthreads =    0
-
 -outvars: echo values of preprocessed input variables --------
            acell      9.5914334888E+00  9.5914334888E+00  9.5914334888E+00 Bohr
              amu      1.78490000E+02  1.59994000E+01
         berryopt1         -1
         berryopt2          4
          chkprim           0
             ecut      2.50000000E+01 Hartree
           ecutsm      5.00000000E-01 Hartree
-          fftalg         512
           getwfk1          0
           getwfk2          1
           istwfk        1    0    0    1    0    0    0    0    0    0
                         0    0    0    0    0    0    1    0    0    1
                         0    0    0    0    0    0    0    0    0    0
                         0    0    0    0    0    0    0    0    0    0
                         0    0    0    0    0    0    0    0    0    0
                       outvar_i_n : Printing only first  50 k-points.
              ixc          11
           jdtset        1    2
              kpt      0.00000000E+00  0.00000000E+00  0.00000000E+00
                       1.66666667E-01  0.00000000E+00  0.00000000E+00
                       3.33333333E-01  0.00000000E+00  0.00000000E+00
                       5.00000000E-01  0.00000000E+00  0.00000000E+00
                       0.00000000E+00  1.66666667E-01  0.00000000E+00
                       1.66666667E-01  1.66666667E-01  0.00000000E+00
                       3.33333333E-01  1.66666667E-01  0.00000000E+00
                       5.00000000E-01  1.66666667E-01  0.00000000E+00
                      -3.33333333E-01  1.66666667E-01  0.00000000E+00
                      -1.66666667E-01  1.66666667E-01  0.00000000E+00
                       0.00000000E+00  3.33333333E-01  0.00000000E+00
                       1.66666667E-01  3.33333333E-01  0.00000000E+00
                       3.33333333E-01  3.33333333E-01  0.00000000E+00
                       5.00000000E-01  3.33333333E-01  0.00000000E+00
                      -3.33333333E-01  3.33333333E-01  0.00000000E+00
                      -1.66666667E-01  3.33333333E-01  0.00000000E+00
                       0.00000000E+00  5.00000000E-01  0.00000000E+00
                       1.66666667E-01  5.00000000E-01  0.00000000E+00
                       3.33333333E-01  5.00000000E-01  0.00000000E+00
                       5.00000000E-01  5.00000000E-01  0.00000000E+00
                       0.00000000E+00  0.00000000E+00  1.66666667E-01
                       1.66666667E-01  0.00000000E+00  1.66666667E-01
                       3.33333333E-01  0.00000000E+00  1.66666667E-01
                       5.00000000E-01  0.00000000E+00  1.66666667E-01
                      -3.33333333E-01  0.00000000E+00  1.66666667E-01
                      -1.66666667E-01  0.00000000E+00  1.66666667E-01
                       0.00000000E+00  1.66666667E-01  1.66666667E-01
                       1.66666667E-01  1.66666667E-01  1.66666667E-01
                       3.33333333E-01  1.66666667E-01  1.66666667E-01
                       5.00000000E-01  1.66666667E-01  1.66666667E-01
                      -3.33333333E-01  1.66666667E-01  1.66666667E-01
                      -1.66666667E-01  1.66666667E-01  1.66666667E-01
                       0.00000000E+00  3.33333333E-01  1.66666667E-01
                       1.66666667E-01  3.33333333E-01  1.66666667E-01
                       3.33333333E-01  3.33333333E-01  1.66666667E-01
                       5.00000000E-01  3.33333333E-01  1.66666667E-01
                      -3.33333333E-01  3.33333333E-01  1.66666667E-01
                      -1.66666667E-01  3.33333333E-01  1.66666667E-01
                       0.00000000E+00  5.00000000E-01  1.66666667E-01
                       1.66666667E-01  5.00000000E-01  1.66666667E-01
                       3.33333333E-01  5.00000000E-01  1.66666667E-01
                       5.00000000E-01  5.00000000E-01  1.66666667E-01
                      -3.33333333E-01  5.00000000E-01  1.66666667E-01
                      -1.66666667E-01  5.00000000E-01  1.66666667E-01
                       0.00000000E+00 -3.33333333E-01  1.66666667E-01
                       1.66666667E-01 -3.33333333E-01  1.66666667E-01
                       3.33333333E-01 -3.33333333E-01  1.66666667E-01
                       5.00000000E-01 -3.33333333E-01  1.66666667E-01
                      -3.33333333E-01 -3.33333333E-01  1.66666667E-01
                      -1.66666667E-01 -3.33333333E-01  1.66666667E-01
                       outvar_i_n : Printing only first  50 k-points.
           kptopt           2
         kptrlatt        6    0    0      0    6    0      0    0    6
          kptrlen      5.75486009E+01
P           mkmem           4
            natom          12
            nband          48
           ndtset           2
            ngfft          45      45      45
             nkpt         112
            nstep         100
             nsym           2
           ntypat           2
              occ      2.000000  2.000000  2.000000  2.000000  2.000000  2.000000
                       2.000000  2.000000  2.000000  2.000000  2.000000  2.000000
                       2.000000  2.000000  2.000000  2.000000  2.000000  2.000000
                       2.000000  2.000000  2.000000  2.000000  2.000000  2.000000
                       2.000000  2.000000  2.000000  2.000000  2.000000  2.000000
                       2.000000  2.000000  2.000000  2.000000  2.000000  2.000000
                       2.000000  2.000000  2.000000  2.000000  2.000000  2.000000
                       2.000000  2.000000  2.000000  2.000000  2.000000  2.000000
        pawecutdg      2.50000000E+01 Hartree
         pawxcdev           0
            rfdir1          1       1       1
            rfdir2          0       0       0
          spgroup          30
        symmorphi           0
           symrel      1  0  0   0  1  0   0  0  1      -1  0  0   0  1  0   0  0 -1
           toldfe      1.00000000E-10 Hartree
           tolmxf      1.00000000E-05
           tsmear      4.00000000E-02 Hartree
            typat      1  1  1  1  2  2  2  2  2  2  2  2
              wtk        0.00463    0.00926    0.00926    0.00463    0.00926    0.00926
                         0.00926    0.00926    0.00926    0.00926    0.00926    0.00926
                         0.00926    0.00926    0.00926    0.00926    0.00463    0.00926
                         0.00926    0.00463    0.00926    0.00926    0.00926    0.00926
                         0.00926    0.00926    0.00926    0.00926    0.00926    0.00926
                         0.00926    0.00926    0.00926    0.00926    0.00926    0.00926
                         0.00926    0.00926    0.00926    0.00926    0.00926    0.00926
                         0.00926    0.00926    0.00926    0.00926    0.00926    0.00926
                         0.00926    0.00926
                       outvars : Printing only first  50 k-points.
           xangst      0.0000000000E+00  8.3878176944E-02  0.0000000000E+00
                       2.5377840000E+00  2.6216694604E+00  0.0000000000E+00
                       0.0000000000E+00  2.6216621769E+00  2.5377840000E+00
                       2.5377840000E+00  8.3885460384E-02  2.5377840000E+00
                       1.3325012514E+00  1.2677781412E+00  1.0151269234E+00
                       1.2052679279E+00  1.2676968306E+00  3.5529117608E+00
                       3.8703000721E+00  3.8054808306E+00  1.0151277608E+00
                       3.7430667486E+00  3.8055621412E+00  3.5529109234E+00
                       1.3325012514E+00  3.8055621412E+00  1.5226570766E+00
                       1.2052679279E+00  3.8054808306E+00  4.0604402392E+00
                       3.8703000721E+00  1.2676968306E+00  1.5226562392E+00
                       3.7430667486E+00  1.2677781412E+00  4.0604410766E+00
            xcart      0.0000000000E+00  1.5850678295E-01  0.0000000000E+00
                       4.7957167444E+00  4.9542372911E+00  0.0000000000E+00
                       0.0000000000E+00  4.9542235274E+00  4.7957167444E+00
                       4.7957167444E+00  1.5852054666E-01  4.7957167444E+00
                       2.5180624369E+00  2.3957534842E+00  1.9183118753E+00
                       2.2776263005E+00  2.3955998294E+00  6.7140302023E+00
                       7.3138071883E+00  7.1913165738E+00  1.9183134579E+00
                       7.0733710519E+00  7.1914702286E+00  6.7140286197E+00
                       2.5180624369E+00  7.1914702286E+00  2.8774048691E+00
                       2.2776263005E+00  7.1913165738E+00  7.6731200310E+00
                       7.3138071883E+00  2.3955998294E+00  2.8774032866E+00
                       7.0733710519E+00  2.3957534842E+00  7.6731216136E+00
             xred      0.0000000000E+00  1.6525870000E-02  0.0000000000E+00
                       5.0000000000E-01  5.1652730500E-01  0.0000000000E+00
                       0.0000000000E+00  5.1652587000E-01  5.0000000000E-01
                       5.0000000000E-01  1.6527305000E-02  5.0000000000E-01
[...]
    4      0.00000000000000    -0.00267001605712     0.00000000000000
    5      0.00029782678360     0.00133167728900    -0.00005977360485
    6     -0.00029862522187     0.00132999892022    -0.00005344336897
    7      0.00030048217536     0.00134122471174    -0.00005927621575
    8     -0.00030141158411     0.00133960312950    -0.00005289647771
    9      0.00030141158411     0.00133960312950     0.00005289647771
   10     -0.00030048217536     0.00134122471174     0.00005927621575
   11      0.00029862522187     0.00132999892022     0.00005344336897
   12     -0.00029782678360     0.00133167728900     0.00005977360485
 frms,max,avg= 1.0999650E-03 2.6723776E-03   0.000E+00 -1.359E-06  0.000E+00 h/b

 cartesian forces (eV/Angstrom) at end:
    1      0.00000000000000    -0.13734942751032     0.00000000000000
    2      0.00000000000000    -0.13741917030577     0.00000000000000
    3      0.00000000000000    -0.13737882954527     0.00000000000000
    4      0.00000000000000    -0.13729773441352     0.00000000000000
    5      0.01531486768669     0.06847759370651    -0.00307368208576
    6     -0.01535592502979     0.06839128852126    -0.00274816829620
    7      0.01545141340973     0.06896854188184    -0.00304810531213
    8     -0.01549920552522     0.06888515677783    -0.00272004601920
    9      0.01549920552522     0.06888515677783     0.00272004601920
   10     -0.01545141340973     0.06896854188184     0.00304810531213
   11      0.01535592502979     0.06839128852126     0.00274816829620
   12     -0.01531486768669     0.06847759370651     0.00307368208576
 frms,max,avg= 5.6562471E-02 1.3741917E-01   0.000E+00 -6.986E-05  0.000E+00 e/A
 length scales=  9.591433488838  9.591433488838  9.591433488838 bohr
              =  5.075568000000  5.075568000000  5.075568000000 angstroms
 prteigrs : about to open file o_DS2_EIG
 Fermi (or HOMO) energy (hartree) =   0.27670   Average Vxc (hartree)=  -0.44595
 Eigenvalues (hartree) for nkpt= 112  k points:
 kpt#   1, nband= 48, wtk=  0.00463, kpt=  0.0000  0.0000  0.0000 (reduced coord)
  -1.94317   -1.94250   -1.94247   -1.94247   -0.80506   -0.80497   -0.80468   -0.79360
  -0.79287   -0.79252   -0.79187   -0.79145   -0.79124   -0.78815   -0.78670   -0.78668
  -0.39519   -0.33820   -0.32981   -0.32878   -0.31888   -0.31643   -0.31557   -0.29837
   0.06058    0.06085    0.07215    0.09600    0.10317    0.10397    0.16071    0.16369
   0.16654    0.16943    0.17209    0.17212    0.21887    0.22417    0.22431    0.22920
   0.24462    0.25325    0.25326    0.25372    0.25457    0.26577    0.26913    0.27517
 prteigrs : prtvol=0 or 1, do not print more k-points.

--- !EnergyTerms
iteration_state     : {dtset: 2, }
comment             : Components of total free energy in Hartree
kinetic             :  1.46236075111094E+02
hartree             :  5.59995751273570E+01
xc                  : -9.09138420972337E+01
Ewald energy        : -2.70068374403710E+02
psp_core            :  1.49595106529080E+01
local_psp           : -2.05728065518626E+02
non_local_psp       : -9.11847505914751E+00
electric            :  0.00000000000000E+00
kohn_sham           : -3.58633596187358E+02
total_energy        : -3.58633596187358E+02
total_energy_eV     : -9.75891645094644E+03
band_energy         : -3.11124593805979E+01
...

Constant unreduced E calculation  - final values:
 (a. u.)
       E:   0.000000000E+00   0.000000000E+00   0.000000000E+00
       P:  -7.441435365E-14   3.347430693E-03  -1.084973412E-13

    ebar:   0.000000000E+00   0.000000000E+00   0.000000000E+00
    pbar:  -8.969125429E-12   4.034641743E-01  -1.307713115E-11

       e:   0.000000000E+00   0.000000000E+00   0.000000000E+00
       p:  -6.845792843E-12   3.079488829E-01  -9.981277613E-12

 (S.I.), that is V/m for E, and C/m^2 for P
-      E:   0.000000000E+00   0.000000000E+00   0.000000000E+00
       P:  -4.257599495E-12   1.915224487E-01  -6.207649501E-12

 Please check: COMMENT -
  As a rough estimate,
  to be below the critical field, the bandgap of your system
  should be larger than    0.00 eV.

 Cartesian components of stress tensor (hartree/bohr^3)
  sigma(1 1)= -1.88949291E-04  sigma(3 2)=  0.00000000E+00
  sigma(2 2)= -1.94768305E-04  sigma(3 1)= -3.25770747E-09
  sigma(3 3)= -4.88102180E-04  sigma(2 1)=  0.00000000E+00

-Cartesian components of stress tensor (GPa)         [Pressure=  8.5499E+00 GPa]
- sigma(1 1)= -5.55907913E+00  sigma(3 2)=  0.00000000E+00
- sigma(2 2)= -5.73028040E+00  sigma(3 1)= -9.58450468E-05
- sigma(3 3)= -1.43604595E+01  sigma(2 1)=  0.00000000E+00

== END DATASET(S) ==============================================================

 -outvars: echo values of variables after computation  --------
            acell      9.5914334888E+00  9.5914334888E+00  9.5914334888E+00 Bohr
              amu      1.78490000E+02  1.59994000E+01
         berryopt1         -1
         berryopt2          4
          chkprim           0
             ecut      2.50000000E+01 Hartree
           ecutsm      5.00000000E-01 Hartree
           etotal1    -3.5863359619E+02
           etotal2    -3.5863359619E+02
            fcart1     0.0000000000E+00 -2.6720250305E-03  1.1293772630E-21
                       0.0000000000E+00 -2.6714508881E-03  1.1293772630E-21
                       0.0000000000E+00 -2.6707118732E-03  1.1293772630E-21
                       0.0000000000E+00 -2.6709528851E-03  1.1293772630E-21
                       2.9783667047E-04  1.3316998223E-03 -5.9785809085E-05
                      -2.9861899982E-04  1.3300250410E-03 -5.3582264579E-05
                       3.0045589044E-04  1.3412412519E-03 -5.9120203979E-05
                      -3.0142455621E-04  1.3396042232E-03 -5.3068820852E-05
                       3.0142455621E-04  1.3396042232E-03  5.3068820852E-05
                      -3.0045589044E-04  1.3412412519E-03  5.9120203979E-05
                       2.9861899982E-04  1.3300250410E-03  5.3582264579E-05
                      -2.9783667047E-04  1.3316998223E-03  5.9785809085E-05
            fcart2     0.0000000000E+00 -2.6710213279E-03  5.6468863150E-22
                       0.0000000000E+00 -2.6723776094E-03  5.6468863150E-22
                       0.0000000000E+00 -2.6715931065E-03  5.6468863150E-22
                       0.0000000000E+00 -2.6700160571E-03  5.6468863150E-22
                       2.9782678360E-04  1.3316772890E-03 -5.9773604849E-05
                      -2.9862522187E-04  1.3299989202E-03 -5.3443368967E-05
                       3.0048217536E-04  1.3412247117E-03 -5.9276215751E-05
                      -3.0141158411E-04  1.3396031295E-03 -5.2896477705E-05
                       3.0141158411E-04  1.3396031295E-03  5.2896477705E-05
                      -3.0048217536E-04  1.3412247117E-03  5.9276215751E-05
                       2.9862522187E-04  1.3299989202E-03  5.3443368967E-05
                      -2.9782678360E-04  1.3316772890E-03  5.9773604849E-05
-          fftalg         512
           getwfk1          0
           getwfk2          1
           istwfk        1    0    0    1    0    0    0    0    0    0
                         0    0    0    0    0    0    1    0    0    1
                         0    0    0    0    0    0    0    0    0    0
                         0    0    0    0    0    0    0    0    0    0
                         0    0    0    0    0    0    0    0    0    0
                       outvar_i_n : Printing only first  50 k-points.
              ixc          11
           jdtset        1    2
              kpt      0.00000000E+00  0.00000000E+00  0.00000000E+00
                       1.66666667E-01  0.00000000E+00  0.00000000E+00
                       3.33333333E-01  0.00000000E+00  0.00000000E+00
                       5.00000000E-01  0.00000000E+00  0.00000000E+00
                       0.00000000E+00  1.66666667E-01  0.00000000E+00
                       1.66666667E-01  1.66666667E-01  0.00000000E+00
                       3.33333333E-01  1.66666667E-01  0.00000000E+00
                       5.00000000E-01  1.66666667E-01  0.00000000E+00
                      -3.33333333E-01  1.66666667E-01  0.00000000E+00
                      -1.66666667E-01  1.66666667E-01  0.00000000E+00
                       0.00000000E+00  3.33333333E-01  0.00000000E+00
                       1.66666667E-01  3.33333333E-01  0.00000000E+00
                       3.33333333E-01  3.33333333E-01  0.00000000E+00
                       5.00000000E-01  3.33333333E-01  0.00000000E+00
                      -3.33333333E-01  3.33333333E-01  0.00000000E+00
                      -1.66666667E-01  3.33333333E-01  0.00000000E+00
                       0.00000000E+00  5.00000000E-01  0.00000000E+00
                       1.66666667E-01  5.00000000E-01  0.00000000E+00
                       3.33333333E-01  5.00000000E-01  0.00000000E+00
                       5.00000000E-01  5.00000000E-01  0.00000000E+00
                       0.00000000E+00  0.00000000E+00  1.66666667E-01
                       1.66666667E-01  0.00000000E+00  1.66666667E-01
                       3.33333333E-01  0.00000000E+00  1.66666667E-01
                       5.00000000E-01  0.00000000E+00  1.66666667E-01
                      -3.33333333E-01  0.00000000E+00  1.66666667E-01
                      -1.66666667E-01  0.00000000E+00  1.66666667E-01
                       0.00000000E+00  1.66666667E-01  1.66666667E-01
                       1.66666667E-01  1.66666667E-01  1.66666667E-01
                       3.33333333E-01  1.66666667E-01  1.66666667E-01
                       5.00000000E-01  1.66666667E-01  1.66666667E-01
                      -3.33333333E-01  1.66666667E-01  1.66666667E-01
                      -1.66666667E-01  1.66666667E-01  1.66666667E-01
                       0.00000000E+00  3.33333333E-01  1.66666667E-01
                       1.66666667E-01  3.33333333E-01  1.66666667E-01
                       3.33333333E-01  3.33333333E-01  1.66666667E-01
                       5.00000000E-01  3.33333333E-01  1.66666667E-01
                      -3.33333333E-01  3.33333333E-01  1.66666667E-01
                      -1.66666667E-01  3.33333333E-01  1.66666667E-01
                       0.00000000E+00  5.00000000E-01  1.66666667E-01
                       1.66666667E-01  5.00000000E-01  1.66666667E-01
                       3.33333333E-01  5.00000000E-01  1.66666667E-01
                       5.00000000E-01  5.00000000E-01  1.66666667E-01
                      -3.33333333E-01  5.00000000E-01  1.66666667E-01
                      -1.66666667E-01  5.00000000E-01  1.66666667E-01
                       0.00000000E+00 -3.33333333E-01  1.66666667E-01
                       1.66666667E-01 -3.33333333E-01  1.66666667E-01
                       3.33333333E-01 -3.33333333E-01  1.66666667E-01
                       5.00000000E-01 -3.33333333E-01  1.66666667E-01
                      -3.33333333E-01 -3.33333333E-01  1.66666667E-01
                      -1.66666667E-01 -3.33333333E-01  1.66666667E-01
                       outvar_i_n : Printing only first  50 k-points.
           kptopt           2
         kptrlatt        6    0    0      0    6    0      0    0    6
          kptrlen      5.75486009E+01
P           mkmem           4
            natom          12
            nband          48
           ndtset           2
            ngfft          45      45      45
             nkpt         112
            nstep         100
             nsym           2
           ntypat           2
              occ      2.000000  2.000000  2.000000  2.000000  2.000000  2.000000
                       2.000000  2.000000  2.000000  2.000000  2.000000  2.000000
                       2.000000  2.000000  2.000000  2.000000  2.000000  2.000000
                       2.000000  2.000000  2.000000  2.000000  2.000000  2.000000
                       2.000000  2.000000  2.000000  2.000000  2.000000  2.000000
                       2.000000  2.000000  2.000000  2.000000  2.000000  2.000000
                       2.000000  2.000000  2.000000  2.000000  2.000000  2.000000
                       2.000000  2.000000  2.000000  2.000000  2.000000  2.000000
        pawecutdg      2.50000000E+01 Hartree
         pawxcdev           0
            rfdir1          1       1       1
            rfdir2          0       0       0
          spgroup          30
           strten1    -1.8894574068E-04 -1.9476463774E-04 -4.8809917781E-04
                       0.0000000000E+00 -3.2786192238E-09  0.0000000000E+00
           strten2    -1.8894929079E-04 -1.9476830478E-04 -4.8810218029E-04
                       0.0000000000E+00 -3.2577074738E-09  0.0000000000E+00
        symmorphi           0
           symrel      1  0  0   0  1  0   0  0  1      -1  0  0   0  1  0   0  0 -1
           toldfe      1.00000000E-10 Hartree
           tolmxf      1.00000000E-05
           tsmear      4.00000000E-02 Hartree
            typat      1  1  1  1  2  2  2  2  2  2  2  2
              wtk        0.00463    0.00926    0.00926    0.00463    0.00926    0.00926
                         0.00926    0.00926    0.00926    0.00926    0.00926    0.00926
                         0.00926    0.00926    0.00926    0.00926    0.00463    0.00926
                         0.00926    0.00463    0.00926    0.00926    0.00926    0.00926
                         0.00926    0.00926    0.00926    0.00926    0.00926    0.00926
                         0.00926    0.00926    0.00926    0.00926    0.00926    0.00926
                         0.00926    0.00926    0.00926    0.00926    0.00926    0.00926
                         0.00926    0.00926    0.00926    0.00926    0.00926    0.00926
                         0.00926    0.00926
                       outvars : Printing only first  50 k-points.
           xangst      0.0000000000E+00  8.3878176944E-02  0.0000000000E+00
                       2.5377840000E+00  2.6216694604E+00  0.0000000000E+00
                       0.0000000000E+00  2.6216621769E+00  2.5377840000E+00
                       2.5377840000E+00  8.3885460384E-02  2.5377840000E+00
                       1.3325012514E+00  1.2677781412E+00  1.0151269234E+00
                       1.2052679279E+00  1.2676968306E+00  3.5529117608E+00
                       3.8703000721E+00  3.8054808306E+00  1.0151277608E+00
                       3.7430667486E+00  3.8055621412E+00  3.5529109234E+00
                       1.3325012514E+00  3.8055621412E+00  1.5226570766E+00
                       1.2052679279E+00  3.8054808306E+00  4.0604402392E+00
                       3.8703000721E+00  1.2676968306E+00  1.5226562392E+00
                       3.7430667486E+00  1.2677781412E+00  4.0604410766E+00
            xcart      0.0000000000E+00  1.5850678295E-01  0.0000000000E+00
                       4.7957167444E+00  4.9542372911E+00  0.0000000000E+00
                       0.0000000000E+00  4.9542235274E+00  4.7957167444E+00
                       4.7957167444E+00  1.5852054666E-01  4.7957167444E+00
                       2.5180624369E+00  2.3957534842E+00  1.9183118753E+00
                       2.2776263005E+00  2.3955998294E+00  6.7140302023E+00
                       7.3138071883E+00  7.1913165738E+00  1.9183134579E+00
                       7.0733710519E+00  7.1914702286E+00  6.7140286197E+00
                       2.5180624369E+00  7.1914702286E+00  2.8774048691E+00
                       2.2776263005E+00  7.1913165738E+00  7.6731200310E+00
                       7.3138071883E+00  2.3955998294E+00  2.8774032866E+00
                       7.0733710519E+00  2.3957534842E+00  7.6731216136E+00
             xred      0.0000000000E+00  1.6525870000E-02  0.0000000000E+00
                       5.0000000000E-01  5.1652730500E-01  0.0000000000E+00
                       0.0000000000E+00  5.1652587000E-01  5.0000000000E-01
                       5.0000000000E-01  1.6527305000E-02  5.0000000000E-01
                       2.6253244000E-01  2.4978054500E-01  2.0000262500E-01
                       2.3746464000E-01  2.4976452500E-01  7.0000279000E-01
                       7.6253536000E-01  7.4976452500E-01  2.0000279000E-01
                       7.3746756000E-01  7.4978054500E-01  7.0000262500E-01
                       2.6253244000E-01  7.4978054500E-01  2.9999737500E-01
                       2.3746464000E-01  7.4976452500E-01  7.9999721000E-01
                       7.6253536000E-01  2.4976452500E-01  2.9999721000E-01
                       7.3746756000E-01  2.4978054500E-01  7.9999737500E-01
            znucl       72.00000    8.00000

- Timing analysis has been suppressed with timopt=0

 Suggested references for the acknowledgment of ABINIT usage.

 Calculation completed.
.Delivered   0 WARNINGs and   2 COMMENTs to log file.