.Version 9.4.2 of ABINIT

 ABINIT is a project of the Universite Catholique de Louvain,
 Corning Inc. and other collaborators, see ~abinit/doc/developers/contributors.txt .
 acknowledgments of the ABINIT effort.

.Starting date : Sun 20 Jun 2021.
- ( at 22h04 )

- input  file    -> /p/work1/jiahaoz/HfO4/CUBIC_ITERATE/iterone/P0.08/itenoe10
- output file    -> /p/work1/jiahaoz/HfO4/CUBIC_ITERATE/iterone/P0.08/itenoe10.abo
- root for input  files -> i
- root for output files -> o

 DATASET    1 : space group P2 (#  3); Bravais mP (primitive monocl.)
     intxc =       0    ionmov =       0      iscf =       7    lmnmax =       8
     lnmax =       8     mgfft =      45  mpssoang =       4    mqgrid =    3001
     natom =      12  nloc_mem =       1    nspden =       1   nspinor =       1
    nsppol =       1      nsym =       2    n1xccc =    2501    ntypat =       2
    occopt =       1   xclevel =       2
-    mband =          48        mffmem =           1         mkmem =           4
       mpw =        5294          nfft =       91125          nkpt =         112
  Rough estimation (10% accuracy) of disk space for files :

 DATASET    2 : space group P2 (#  3); Bravais mP (primitive monocl.)
     intxc =       0    ionmov =       0      iscf =       7    lmnmax =       8
     lnmax =       8     mgfft =      45  mpssoang =       4    mqgrid =    3001
     natom =      12  nloc_mem =       1    nspden =       1   nspinor =       1
    nsppol =       1      nsym =       2    n1xccc =    2501    ntypat =       2
    occopt =       1   xclevel =       2
-    mband =          48        mffmem =           1         mkmem =           4
       mpw =        5294          nfft =       91125          nkpt =         112
  Rough estimation (10% accuracy) of disk space for files :

------------- Echo of variables that govern the present computation ------------
-
- outvars: echo of selected default values
-   iomode0 =  0 , fftalg0 =512 , wfoptalg0 =  0
-
- outvars: echo of global parameters not present in the input file
-  max_nthreads =    0
-
 -outvars: echo values of preprocessed input variables --------
            acell      9.5914334888E+00  9.5914334888E+00  9.5914334888E+00 Bohr
              amu      1.78490000E+02  1.59994000E+01
         berryopt1         -1
         berryopt2          4
          chkprim           0
             ecut      2.50000000E+01 Hartree
           ecutsm      5.00000000E-01 Hartree
-          fftalg         512
           getwfk1          0
           getwfk2          1
           istwfk        1    0    0    1    0    0    0    0    0    0
                         0    0    0    0    0    0    1    0    0    1
                         0    0    0    0    0    0    0    0    0    0
                         0    0    0    0    0    0    0    0    0    0
                         0    0    0    0    0    0    0    0    0    0
                       outvar_i_n : Printing only first  50 k-points.
              ixc          11
           jdtset        1    2
              kpt      0.00000000E+00  0.00000000E+00  0.00000000E+00
                       1.66666667E-01  0.00000000E+00  0.00000000E+00
                       3.33333333E-01  0.00000000E+00  0.00000000E+00
                       5.00000000E-01  0.00000000E+00  0.00000000E+00
                       0.00000000E+00  1.66666667E-01  0.00000000E+00
                       1.66666667E-01  1.66666667E-01  0.00000000E+00
                       3.33333333E-01  1.66666667E-01  0.00000000E+00
                       5.00000000E-01  1.66666667E-01  0.00000000E+00
                      -3.33333333E-01  1.66666667E-01  0.00000000E+00
                      -1.66666667E-01  1.66666667E-01  0.00000000E+00
                       0.00000000E+00  3.33333333E-01  0.00000000E+00
                       1.66666667E-01  3.33333333E-01  0.00000000E+00
                       3.33333333E-01  3.33333333E-01  0.00000000E+00
                       5.00000000E-01  3.33333333E-01  0.00000000E+00
                      -3.33333333E-01  3.33333333E-01  0.00000000E+00
                      -1.66666667E-01  3.33333333E-01  0.00000000E+00
                       0.00000000E+00  5.00000000E-01  0.00000000E+00
                       1.66666667E-01  5.00000000E-01  0.00000000E+00
                       3.33333333E-01  5.00000000E-01  0.00000000E+00
                       5.00000000E-01  5.00000000E-01  0.00000000E+00
                       0.00000000E+00  0.00000000E+00  1.66666667E-01
                       1.66666667E-01  0.00000000E+00  1.66666667E-01
                       3.33333333E-01  0.00000000E+00  1.66666667E-01
                       5.00000000E-01  0.00000000E+00  1.66666667E-01
                      -3.33333333E-01  0.00000000E+00  1.66666667E-01
                      -1.66666667E-01  0.00000000E+00  1.66666667E-01
                       0.00000000E+00  1.66666667E-01  1.66666667E-01
                       1.66666667E-01  1.66666667E-01  1.66666667E-01
                       3.33333333E-01  1.66666667E-01  1.66666667E-01
                       5.00000000E-01  1.66666667E-01  1.66666667E-01
                      -3.33333333E-01  1.66666667E-01  1.66666667E-01
                      -1.66666667E-01  1.66666667E-01  1.66666667E-01
                       0.00000000E+00  3.33333333E-01  1.66666667E-01
                       1.66666667E-01  3.33333333E-01  1.66666667E-01
                       3.33333333E-01  3.33333333E-01  1.66666667E-01
                       5.00000000E-01  3.33333333E-01  1.66666667E-01
                      -3.33333333E-01  3.33333333E-01  1.66666667E-01
                      -1.66666667E-01  3.33333333E-01  1.66666667E-01
                       0.00000000E+00  5.00000000E-01  1.66666667E-01
                       1.66666667E-01  5.00000000E-01  1.66666667E-01
                       3.33333333E-01  5.00000000E-01  1.66666667E-01
                       5.00000000E-01  5.00000000E-01  1.66666667E-01
                      -3.33333333E-01  5.00000000E-01  1.66666667E-01
                      -1.66666667E-01  5.00000000E-01  1.66666667E-01
                       0.00000000E+00 -3.33333333E-01  1.66666667E-01
                       1.66666667E-01 -3.33333333E-01  1.66666667E-01
                       3.33333333E-01 -3.33333333E-01  1.66666667E-01
                       5.00000000E-01 -3.33333333E-01  1.66666667E-01
                      -3.33333333E-01 -3.33333333E-01  1.66666667E-01
                      -1.66666667E-01 -3.33333333E-01  1.66666667E-01
                       outvar_i_n : Printing only first  50 k-points.
           kptopt           2
         kptrlatt        6    0    0      0    6    0      0    0    6
          kptrlen      5.75486009E+01
P           mkmem           4
            natom          12
            nband          48
           ndtset           2
            ngfft          45      45      45
             nkpt         112
            nstep         100
             nsym           2
           ntypat           2
              occ      2.000000  2.000000  2.000000  2.000000  2.000000  2.000000
                       2.000000  2.000000  2.000000  2.000000  2.000000  2.000000
                       2.000000  2.000000  2.000000  2.000000  2.000000  2.000000
                       2.000000  2.000000  2.000000  2.000000  2.000000  2.000000
                       2.000000  2.000000  2.000000  2.000000  2.000000  2.000000
                       2.000000  2.000000  2.000000  2.000000  2.000000  2.000000
                       2.000000  2.000000  2.000000  2.000000  2.000000  2.000000
                       2.000000  2.000000  2.000000  2.000000  2.000000  2.000000
        pawecutdg      2.50000000E+01 Hartree
         pawxcdev           0
            rfdir1          1       1       1
            rfdir2          0       0       0
          spgroup           3
        symmorphi           0
           symrel      1  0  0   0  1  0   0  0  1      -1  0  0   0  1  0   0  0 -1
           toldfe      1.00000000E-10 Hartree
           tolmxf      1.00000000E-05
           tsmear      4.00000000E-02 Hartree
            typat      1  1  1  1  2  2  2  2  2  2  2  2
              wtk        0.00463    0.00926    0.00926    0.00463    0.00926    0.00926
                         0.00926    0.00926    0.00926    0.00926    0.00926    0.00926
                         0.00926    0.00926    0.00926    0.00926    0.00463    0.00926
                         0.00926    0.00463    0.00926    0.00926    0.00926    0.00926
                         0.00926    0.00926    0.00926    0.00926    0.00926    0.00926
                         0.00926    0.00926    0.00926    0.00926    0.00926    0.00926
                         0.00926    0.00926    0.00926    0.00926    0.00926    0.00926
                         0.00926    0.00926    0.00926    0.00926    0.00926    0.00926
                         0.00926    0.00926
                       outvars : Printing only first  50 k-points.
           xangst      0.0000000000E+00  3.3501185073E-02  0.0000000000E+00
                       2.5377840000E+00  2.5712785361E+00  0.0000000000E+00
                       0.0000000000E+00  2.5713208156E+00  2.5377840000E+00
                       2.5377840000E+00  3.3507224999E-02  2.5377840000E+00
                       1.2943806904E+00  1.2684604752E+00  1.0219888121E+00
                       1.2433903669E+00  1.2683793676E+00  3.5597767203E+00
                       3.8320835828E+00  3.8061771732E+00  1.0220231737E+00
                       3.7813005455E+00  3.8063052805E+00  3.5598192028E+00
                       1.2942674545E+00  3.8063052805E+00  1.5157487972E+00
                       1.2434844172E+00  3.8061771732E+00  4.0535448263E+00
                       3.8321776331E+00  1.2683793676E+00  1.5157912797E+00
                       3.7811873096E+00  1.2684604752E+00  4.0535791879E+00
            xcart      0.0000000000E+00  6.3308064914E-02  0.0000000000E+00
                       4.7957167444E+00  4.8590122446E+00  0.0000000000E+00
                       0.0000000000E+00  4.8590921412E+00  4.7957167444E+00
                       4.7957167444E+00  6.3319478720E-02  4.7957167444E+00
                       2.4460250166E+00  2.3970429085E+00  1.9312789658E+00
                       2.3496672697E+00  2.3968896374E+00  6.7270030957E+00
                       7.2415884899E+00  7.1926324705E+00  1.9313438998E+00
                       7.1456224572E+00  7.1928745583E+00  6.7270833759E+00
                       2.4458110317E+00  7.1928745583E+00  2.8643501129E+00
                       2.3498449990E+00  7.1926324705E+00  7.6600895890E+00
                       7.2417662191E+00  2.3968896374E+00  2.8644303932E+00
                       7.1454084723E+00  2.3970429085E+00  7.6601545230E+00
             xred      0.0000000000E+00  6.6004800000E-03  0.0000000000E+00
                       5.0000000000E-01  5.0659917000E-01  0.0000000000E+00
                       0.0000000000E+00  5.0660750000E-01  5.0000000000E-01
                       5.0000000000E-01  6.6016700000E-03  5.0000000000E-01
[...]
    4      0.00000000000000    -0.00097161527780     0.00000000000000
    5      0.00010918755033     0.00048587262798    -0.00000838498852
    6     -0.00010920525076     0.00048586385072    -0.00000841467777
    7      0.00010918426857     0.00048580852945    -0.00000837375010
    8     -0.00010915817407     0.00048583214704    -0.00000835779185
    9      0.00010915817407     0.00048583214704     0.00000835779185
   10     -0.00010918426857     0.00048580852945     0.00000837375010
   11      0.00010920525076     0.00048586385072     0.00000841467777
   12     -0.00010918755033     0.00048587262798     0.00000838498852
 frms,max,avg= 4.0003483E-04 9.7176643E-04   0.000E+00  2.819E-06  0.000E+00 h/b

 cartesian forces (eV/Angstrom) at end:
    1      0.00000000000000    -0.04996466562656     0.00000000000000
    2      0.00000000000000    -0.04996756322954     0.00000000000000
    3      0.00000000000000    -0.04997023469082     0.00000000000000
    4      0.00000000000000    -0.04996246221350     0.00000000000000
    5      0.00561464911301     0.02498457297925    -0.00043117340935
    6     -0.00561555930530     0.02498412163472    -0.00043270009184
    7      0.00561448035809     0.02498127690047    -0.00043059550694
    8     -0.00561313852517     0.02498249136577    -0.00042977490058
    9      0.00561313852517     0.02498249136577     0.00042977490058
   10     -0.00561448035809     0.02498127690047     0.00043059550694
   11      0.00561555930530     0.02498412163472     0.00043270009184
   12     -0.00561464911301     0.02498457297925     0.00043117340935
 frms,max,avg= 2.0570616E-02 4.9970235E-02   0.000E+00  1.450E-04  0.000E+00 e/A
 length scales=  9.591433488838  9.591433488838  9.591433488838 bohr
              =  5.075568000000  5.075568000000  5.075568000000 angstroms
 prteigrs : about to open file o_DS2_EIG
 Fermi (or HOMO) energy (hartree) =   0.27706   Average Vxc (hartree)=  -0.44600
 Eigenvalues (hartree) for nkpt= 112  k points:
 kpt#   1, nband= 48, wtk=  0.00463, kpt=  0.0000  0.0000  0.0000 (reduced coord)
  -1.94361   -1.94294   -1.94292   -1.94291   -0.80520   -0.80519   -0.80485   -0.79330
  -0.79308   -0.79276   -0.79256   -0.79147   -0.79143   -0.78854   -0.78693   -0.78693
  -0.39507   -0.33820   -0.32907   -0.32890   -0.31890   -0.31591   -0.31578   -0.29706
   0.06034    0.06038    0.07175    0.09589    0.10267    0.10279    0.16335    0.16421
   0.16650    0.16734    0.17263    0.17264    0.22289    0.22376    0.22765    0.22856
   0.24868    0.25038    0.25498    0.25531    0.25828    0.26619    0.26706    0.27518
 prteigrs : prtvol=0 or 1, do not print more k-points.

--- !EnergyTerms
iteration_state     : {dtset: 2, }
comment             : Components of total free energy in Hartree
kinetic             :  1.46198796005385E+02
hartree             :  5.59303367552184E+01
xc                  : -9.09055558416595E+01
Ewald energy        : -2.70150064279539E+02
psp_core            :  1.49595106529080E+01
local_psp           : -2.05553601576384E+02
non_local_psp       : -9.11358723778968E+00
electric            :  0.00000000000000E+00
kohn_sham           : -3.58634165521860E+02
total_energy        : -3.58634165521860E+02
total_energy_eV     : -9.75893194332610E+03
band_energy         : -3.10983240438844E+01
...

Constant unreduced E calculation  - final values:
 (a. u.)
       E:   0.000000000E+00   0.000000000E+00   0.000000000E+00
       P:   8.828616547E-14   1.344694852E-03  -2.471942389E-14

    ebar:   0.000000000E+00   0.000000000E+00   0.000000000E+00
    pbar:   1.064108808E-11   1.620754089E-01  -2.979419998E-12

       e:   0.000000000E+00   0.000000000E+00   0.000000000E+00
       p:   8.121938444E-12   1.237060049E-01  -2.274078143E-12

 (S.I.), that is V/m for E, and C/m^2 for P
-      E:   0.000000000E+00   0.000000000E+00   0.000000000E+00
       P:   5.051271899E-12   7.693639525E-02  -1.414315942E-12

 Please check: COMMENT -
  As a rough estimate,
  to be below the critical field, the bandgap of your system
  should be larger than    0.00 eV.

 Cartesian components of stress tensor (hartree/bohr^3)
  sigma(1 1)= -1.74881421E-04  sigma(3 2)=  0.00000000E+00
  sigma(2 2)= -1.76152248E-04  sigma(3 1)= -2.53955699E-09
  sigma(3 3)= -4.77418836E-04  sigma(2 1)=  0.00000000E+00

-Cartesian components of stress tensor (GPa)         [Pressure=  8.1246E+00 GPa]
- sigma(1 1)= -5.14518817E+00  sigma(3 2)=  0.00000000E+00
- sigma(2 2)= -5.18257719E+00  sigma(3 1)= -7.47163337E-05
- sigma(3 3)= -1.40461447E+01  sigma(2 1)=  0.00000000E+00

== END DATASET(S) ==============================================================

 -outvars: echo values of variables after computation  --------
            acell      9.5914334888E+00  9.5914334888E+00  9.5914334888E+00 Bohr
              amu      1.78490000E+02  1.59994000E+01
         berryopt1         -1
         berryopt2          4
          chkprim           0
             ecut      2.50000000E+01 Hartree
           ecutsm      5.00000000E-01 Hartree
           etotal1    -3.5863416552E+02
           etotal2    -3.5863416552E+02
            fcart1     0.0000000000E+00 -9.7182526408E-04 -2.8234431575E-22
                       0.0000000000E+00 -9.7159761667E-04 -2.8234431575E-22
                       0.0000000000E+00 -9.7164304135E-04 -2.8234431575E-22
                       0.0000000000E+00 -9.7173502127E-04 -2.8234431575E-22
                       1.0923710540E-04  4.8587107540E-04 -8.3179158858E-06
                      -1.0915805196E-04  4.8586571705E-04 -8.5670797951E-06
                       1.0919553569E-04  4.8583482877E-04 -8.3544610824E-06
                      -1.0913426747E-04  4.8582885046E-04 -8.5312510548E-06
                       1.0913426747E-04  4.8582885046E-04  8.5312510548E-06
                      -1.0919553569E-04  4.8583482877E-04  8.3544610824E-06
                       1.0915805196E-04  4.8586571705E-04  8.5670797951E-06
                      -1.0923710540E-04  4.8587107540E-04  8.3179158858E-06
            fcart2     0.0000000000E+00 -9.7165812736E-04  2.8234431575E-22
                       0.0000000000E+00 -9.7171447678E-04  2.8234431575E-22
                       0.0000000000E+00 -9.7176642843E-04  2.8234431575E-22
                       0.0000000000E+00 -9.7161527780E-04  2.8234431575E-22
                       1.0918755033E-04  4.8587262798E-04 -8.3849885162E-06
                      -1.0920525076E-04  4.8586385072E-04 -8.4146777663E-06
                       1.0918426857E-04  4.8580852945E-04 -8.3737501027E-06
                      -1.0915817407E-04  4.8583214704E-04 -8.3577918486E-06
                       1.0915817407E-04  4.8583214704E-04  8.3577918486E-06
                      -1.0918426857E-04  4.8580852945E-04  8.3737501027E-06
                       1.0920525076E-04  4.8586385072E-04  8.4146777663E-06
                      -1.0918755033E-04  4.8587262798E-04  8.3849885162E-06
-          fftalg         512
           getwfk1          0
           getwfk2          1
           istwfk        1    0    0    1    0    0    0    0    0    0
                         0    0    0    0    0    0    1    0    0    1
                         0    0    0    0    0    0    0    0    0    0
                         0    0    0    0    0    0    0    0    0    0
                         0    0    0    0    0    0    0    0    0    0
                       outvar_i_n : Printing only first  50 k-points.
              ixc          11
           jdtset        1    2
              kpt      0.00000000E+00  0.00000000E+00  0.00000000E+00
                       1.66666667E-01  0.00000000E+00  0.00000000E+00
                       3.33333333E-01  0.00000000E+00  0.00000000E+00
                       5.00000000E-01  0.00000000E+00  0.00000000E+00
                       0.00000000E+00  1.66666667E-01  0.00000000E+00
                       1.66666667E-01  1.66666667E-01  0.00000000E+00
                       3.33333333E-01  1.66666667E-01  0.00000000E+00
                       5.00000000E-01  1.66666667E-01  0.00000000E+00
                      -3.33333333E-01  1.66666667E-01  0.00000000E+00
                      -1.66666667E-01  1.66666667E-01  0.00000000E+00
                       0.00000000E+00  3.33333333E-01  0.00000000E+00
                       1.66666667E-01  3.33333333E-01  0.00000000E+00
                       3.33333333E-01  3.33333333E-01  0.00000000E+00
                       5.00000000E-01  3.33333333E-01  0.00000000E+00
                      -3.33333333E-01  3.33333333E-01  0.00000000E+00
                      -1.66666667E-01  3.33333333E-01  0.00000000E+00
                       0.00000000E+00  5.00000000E-01  0.00000000E+00
                       1.66666667E-01  5.00000000E-01  0.00000000E+00
                       3.33333333E-01  5.00000000E-01  0.00000000E+00
                       5.00000000E-01  5.00000000E-01  0.00000000E+00
                       0.00000000E+00  0.00000000E+00  1.66666667E-01
                       1.66666667E-01  0.00000000E+00  1.66666667E-01
                       3.33333333E-01  0.00000000E+00  1.66666667E-01
                       5.00000000E-01  0.00000000E+00  1.66666667E-01
                      -3.33333333E-01  0.00000000E+00  1.66666667E-01
                      -1.66666667E-01  0.00000000E+00  1.66666667E-01
                       0.00000000E+00  1.66666667E-01  1.66666667E-01
                       1.66666667E-01  1.66666667E-01  1.66666667E-01
                       3.33333333E-01  1.66666667E-01  1.66666667E-01
                       5.00000000E-01  1.66666667E-01  1.66666667E-01
                      -3.33333333E-01  1.66666667E-01  1.66666667E-01
                      -1.66666667E-01  1.66666667E-01  1.66666667E-01
                       0.00000000E+00  3.33333333E-01  1.66666667E-01
                       1.66666667E-01  3.33333333E-01  1.66666667E-01
                       3.33333333E-01  3.33333333E-01  1.66666667E-01
                       5.00000000E-01  3.33333333E-01  1.66666667E-01
                      -3.33333333E-01  3.33333333E-01  1.66666667E-01
                      -1.66666667E-01  3.33333333E-01  1.66666667E-01
                       0.00000000E+00  5.00000000E-01  1.66666667E-01
                       1.66666667E-01  5.00000000E-01  1.66666667E-01
                       3.33333333E-01  5.00000000E-01  1.66666667E-01
                       5.00000000E-01  5.00000000E-01  1.66666667E-01
                      -3.33333333E-01  5.00000000E-01  1.66666667E-01
                      -1.66666667E-01  5.00000000E-01  1.66666667E-01
                       0.00000000E+00 -3.33333333E-01  1.66666667E-01
                       1.66666667E-01 -3.33333333E-01  1.66666667E-01
                       3.33333333E-01 -3.33333333E-01  1.66666667E-01
                       5.00000000E-01 -3.33333333E-01  1.66666667E-01
                      -3.33333333E-01 -3.33333333E-01  1.66666667E-01
                      -1.66666667E-01 -3.33333333E-01  1.66666667E-01
                       outvar_i_n : Printing only first  50 k-points.
           kptopt           2
         kptrlatt        6    0    0      0    6    0      0    0    6
          kptrlen      5.75486009E+01
P           mkmem           4
            natom          12
            nband          48
           ndtset           2
            ngfft          45      45      45
             nkpt         112
            nstep         100
             nsym           2
           ntypat           2
              occ      2.000000  2.000000  2.000000  2.000000  2.000000  2.000000
                       2.000000  2.000000  2.000000  2.000000  2.000000  2.000000
                       2.000000  2.000000  2.000000  2.000000  2.000000  2.000000
                       2.000000  2.000000  2.000000  2.000000  2.000000  2.000000
                       2.000000  2.000000  2.000000  2.000000  2.000000  2.000000
                       2.000000  2.000000  2.000000  2.000000  2.000000  2.000000
                       2.000000  2.000000  2.000000  2.000000  2.000000  2.000000
                       2.000000  2.000000  2.000000  2.000000  2.000000  2.000000
        pawecutdg      2.50000000E+01 Hartree
         pawxcdev           0
            rfdir1          1       1       1
            rfdir2          0       0       0
          spgroup           3
           strten1    -1.7487904004E-04 -1.7614987009E-04 -4.7741687460E-04
                       0.0000000000E+00 -2.5800675709E-09  0.0000000000E+00
           strten2    -1.7488142089E-04 -1.7615224786E-04 -4.7741883553E-04
                       0.0000000000E+00 -2.5395569922E-09  0.0000000000E+00
        symmorphi           0
           symrel      1  0  0   0  1  0   0  0  1      -1  0  0   0  1  0   0  0 -1
           toldfe      1.00000000E-10 Hartree
           tolmxf      1.00000000E-05
           tsmear      4.00000000E-02 Hartree
            typat      1  1  1  1  2  2  2  2  2  2  2  2
              wtk        0.00463    0.00926    0.00926    0.00463    0.00926    0.00926
                         0.00926    0.00926    0.00926    0.00926    0.00926    0.00926
                         0.00926    0.00926    0.00926    0.00926    0.00463    0.00926
                         0.00926    0.00463    0.00926    0.00926    0.00926    0.00926
                         0.00926    0.00926    0.00926    0.00926    0.00926    0.00926
                         0.00926    0.00926    0.00926    0.00926    0.00926    0.00926
                         0.00926    0.00926    0.00926    0.00926    0.00926    0.00926
                         0.00926    0.00926    0.00926    0.00926    0.00926    0.00926
                         0.00926    0.00926
                       outvars : Printing only first  50 k-points.
           xangst      0.0000000000E+00  3.3501185073E-02  0.0000000000E+00
                       2.5377840000E+00  2.5712785361E+00  0.0000000000E+00
                       0.0000000000E+00  2.5713208156E+00  2.5377840000E+00
                       2.5377840000E+00  3.3507224999E-02  2.5377840000E+00
                       1.2943806904E+00  1.2684604752E+00  1.0219888121E+00
                       1.2433903669E+00  1.2683793676E+00  3.5597767203E+00
                       3.8320835828E+00  3.8061771732E+00  1.0220231737E+00
                       3.7813005455E+00  3.8063052805E+00  3.5598192028E+00
                       1.2942674545E+00  3.8063052805E+00  1.5157487972E+00
                       1.2434844172E+00  3.8061771732E+00  4.0535448263E+00
                       3.8321776331E+00  1.2683793676E+00  1.5157912797E+00
                       3.7811873096E+00  1.2684604752E+00  4.0535791879E+00
            xcart      0.0000000000E+00  6.3308064914E-02  0.0000000000E+00
                       4.7957167444E+00  4.8590122446E+00  0.0000000000E+00
                       0.0000000000E+00  4.8590921412E+00  4.7957167444E+00
                       4.7957167444E+00  6.3319478720E-02  4.7957167444E+00
                       2.4460250166E+00  2.3970429085E+00  1.9312789658E+00
                       2.3496672697E+00  2.3968896374E+00  6.7270030957E+00
                       7.2415884899E+00  7.1926324705E+00  1.9313438998E+00
                       7.1456224572E+00  7.1928745583E+00  6.7270833759E+00
                       2.4458110317E+00  7.1928745583E+00  2.8643501129E+00
                       2.3498449990E+00  7.1926324705E+00  7.6600895890E+00
                       7.2417662191E+00  2.3968896374E+00  2.8644303932E+00
                       7.1454084723E+00  2.3970429085E+00  7.6601545230E+00
             xred      0.0000000000E+00  6.6004800000E-03  0.0000000000E+00
                       5.0000000000E-01  5.0659917000E-01  0.0000000000E+00
                       0.0000000000E+00  5.0660750000E-01  5.0000000000E-01
                       5.0000000000E-01  6.6016700000E-03  5.0000000000E-01
                       2.5502184000E-01  2.4991498000E-01  2.0135457000E-01
                       2.4497561000E-01  2.4989900000E-01  7.0135534000E-01
                       7.5500586000E-01  7.4990172000E-01  2.0136134000E-01
                       7.4500047000E-01  7.4992696000E-01  7.0136371000E-01
                       2.5499953000E-01  7.4992696000E-01  2.9863629000E-01
                       2.4499414000E-01  7.4990172000E-01  7.9863866000E-01
                       7.5502439000E-01  2.4989900000E-01  2.9864466000E-01
                       7.4497816000E-01  2.4991498000E-01  7.9864543000E-01
            znucl       72.00000    8.00000

- Timing analysis has been suppressed with timopt=0

 Suggested references for the acknowledgment of ABINIT usage.

 Calculation completed.
.Delivered   0 WARNINGs and   2 COMMENTs to log file.