.Version 9.4.2 of ABINIT

 ABINIT is a project of the Universite Catholique de Louvain,
 Corning Inc. and other collaborators, see ~abinit/doc/developers/contributors.txt .
 acknowledgments of the ABINIT effort.

.Starting date : Sun 20 Jun 2021.
- ( at 06h24 )

- input  file    -> /p/work1/jiahaoz/HfO4/CUBIC_ITERATE/itertwo/P-0.05/itenoe0
- output file    -> /p/work1/jiahaoz/HfO4/CUBIC_ITERATE/itertwo/P-0.05/itenoe0.abo
- root for input  files -> i
- root for output files -> o

 DATASET    1 : space group P-4 2 m (#111); Bravais tP (primitive tetrag.)
     intxc =       0    ionmov =       0      iscf =       7    lmnmax =       8
     lnmax =       8     mgfft =      45  mpssoang =       4    mqgrid =    3001
     natom =      12  nloc_mem =       1    nspden =       1   nspinor =       1
    nsppol =       1      nsym =       8    n1xccc =    2501    ntypat =       2
    occopt =       1   xclevel =       2
-    mband =          48        mffmem =           1         mkmem =           4
       mpw =        5294          nfft =       91125          nkpt =         112
  Rough estimation (10% accuracy) of disk space for files :

 DATASET    2 : space group P-4 2 m (#111); Bravais tP (primitive tetrag.)
     intxc =       0    ionmov =       0      iscf =       7    lmnmax =       8
     lnmax =       8     mgfft =      45  mpssoang =       4    mqgrid =    3001
     natom =      12  nloc_mem =       1    nspden =       1   nspinor =       1
    nsppol =       1      nsym =       8    n1xccc =    2501    ntypat =       2
    occopt =       1   xclevel =       2
-    mband =          48        mffmem =           1         mkmem =           4
       mpw =        5294          nfft =       91125          nkpt =         112
  Rough estimation (10% accuracy) of disk space for files :

------------- Echo of variables that govern the present computation ------------
-
- outvars: echo of selected default values
-   iomode0 =  0 , fftalg0 =512 , wfoptalg0 =  0
-
- outvars: echo of global parameters not present in the input file
-  max_nthreads =    0
-
 -outvars: echo values of preprocessed input variables --------
            acell      9.5914334888E+00  9.5914334888E+00  9.5914334888E+00 Bohr
              amu      1.78490000E+02  1.59994000E+01
         berryopt1         -1
         berryopt2          4
          chkprim           0
             ecut      2.50000000E+01 Hartree
           ecutsm      5.00000000E-01 Hartree
-          fftalg         512
           getwfk1          0
           getwfk2          1
           istwfk        1    0    0    1    0    0    0    0    0    0
                         0    0    0    0    0    0    1    0    0    1
                         0    0    0    0    0    0    0    0    0    0
                         0    0    0    0    0    0    0    0    0    0
                         0    0    0    0    0    0    0    0    0    0
                       outvar_i_n : Printing only first  50 k-points.
              ixc          11
           jdtset        1    2
              kpt      0.00000000E+00  0.00000000E+00  0.00000000E+00
                       1.66666667E-01  0.00000000E+00  0.00000000E+00
                       3.33333333E-01  0.00000000E+00  0.00000000E+00
                       5.00000000E-01  0.00000000E+00  0.00000000E+00
                       0.00000000E+00  1.66666667E-01  0.00000000E+00
                       1.66666667E-01  1.66666667E-01  0.00000000E+00
                       3.33333333E-01  1.66666667E-01  0.00000000E+00
                       5.00000000E-01  1.66666667E-01  0.00000000E+00
                      -3.33333333E-01  1.66666667E-01  0.00000000E+00
                      -1.66666667E-01  1.66666667E-01  0.00000000E+00
                       0.00000000E+00  3.33333333E-01  0.00000000E+00
                       1.66666667E-01  3.33333333E-01  0.00000000E+00
                       3.33333333E-01  3.33333333E-01  0.00000000E+00
                       5.00000000E-01  3.33333333E-01  0.00000000E+00
                      -3.33333333E-01  3.33333333E-01  0.00000000E+00
                      -1.66666667E-01  3.33333333E-01  0.00000000E+00
                       0.00000000E+00  5.00000000E-01  0.00000000E+00
                       1.66666667E-01  5.00000000E-01  0.00000000E+00
                       3.33333333E-01  5.00000000E-01  0.00000000E+00
                       5.00000000E-01  5.00000000E-01  0.00000000E+00
                       0.00000000E+00  0.00000000E+00  1.66666667E-01
                       1.66666667E-01  0.00000000E+00  1.66666667E-01
                       3.33333333E-01  0.00000000E+00  1.66666667E-01
                       5.00000000E-01  0.00000000E+00  1.66666667E-01
                      -3.33333333E-01  0.00000000E+00  1.66666667E-01
                      -1.66666667E-01  0.00000000E+00  1.66666667E-01
                       0.00000000E+00  1.66666667E-01  1.66666667E-01
                       1.66666667E-01  1.66666667E-01  1.66666667E-01
                       3.33333333E-01  1.66666667E-01  1.66666667E-01
                       5.00000000E-01  1.66666667E-01  1.66666667E-01
                      -3.33333333E-01  1.66666667E-01  1.66666667E-01
                      -1.66666667E-01  1.66666667E-01  1.66666667E-01
                       0.00000000E+00  3.33333333E-01  1.66666667E-01
                       1.66666667E-01  3.33333333E-01  1.66666667E-01
                       3.33333333E-01  3.33333333E-01  1.66666667E-01
                       5.00000000E-01  3.33333333E-01  1.66666667E-01
                      -3.33333333E-01  3.33333333E-01  1.66666667E-01
                      -1.66666667E-01  3.33333333E-01  1.66666667E-01
                       0.00000000E+00  5.00000000E-01  1.66666667E-01
                       1.66666667E-01  5.00000000E-01  1.66666667E-01
                       3.33333333E-01  5.00000000E-01  1.66666667E-01
                       5.00000000E-01  5.00000000E-01  1.66666667E-01
                      -3.33333333E-01  5.00000000E-01  1.66666667E-01
                      -1.66666667E-01  5.00000000E-01  1.66666667E-01
                       0.00000000E+00 -3.33333333E-01  1.66666667E-01
                       1.66666667E-01 -3.33333333E-01  1.66666667E-01
                       3.33333333E-01 -3.33333333E-01  1.66666667E-01
                       5.00000000E-01 -3.33333333E-01  1.66666667E-01
                      -3.33333333E-01 -3.33333333E-01  1.66666667E-01
                      -1.66666667E-01 -3.33333333E-01  1.66666667E-01
                       outvar_i_n : Printing only first  50 k-points.
           kptopt           2
         kptrlatt        6    0    0      0    6    0      0    0    6
          kptrlen      5.75486009E+01
P           mkmem           4
            natom          12
            nband          48
           ndtset           2
            ngfft          45      45      45
             nkpt         112
            nstep         100
             nsym           8
           ntypat           2
              occ      2.000000  2.000000  2.000000  2.000000  2.000000  2.000000
                       2.000000  2.000000  2.000000  2.000000  2.000000  2.000000
                       2.000000  2.000000  2.000000  2.000000  2.000000  2.000000
                       2.000000  2.000000  2.000000  2.000000  2.000000  2.000000
                       2.000000  2.000000  2.000000  2.000000  2.000000  2.000000
                       2.000000  2.000000  2.000000  2.000000  2.000000  2.000000
                       2.000000  2.000000  2.000000  2.000000  2.000000  2.000000
                       2.000000  2.000000  2.000000  2.000000  2.000000  2.000000
        pawecutdg      2.50000000E+01 Hartree
         pawxcdev           0
            rfdir1          1       1       1
            rfdir2          0       0       0
          spgroup         111
        symmorphi           0
           symrel      1  0  0   0  1  0   0  0  1      -1  0  0   0  1  0   0  0 -1
                      -1  0  0   0 -1  0   0  0  1       1  0  0   0 -1  0   0  0 -1
                       0  1  0   1  0  0   0  0  1       0 -1  0   1  0  0   0  0 -1
                       0 -1  0  -1  0  0   0  0  1       0  1  0  -1  0  0   0  0 -1
           toldfe      1.00000000E-10 Hartree
           tolmxf      1.00000000E-05
           tsmear      4.00000000E-02 Hartree
            typat      1  1  1  1  2  2  2  2  2  2  2  2
              wtk        0.00463    0.00926    0.00926    0.00463    0.00926    0.00926
                         0.00926    0.00926    0.00926    0.00926    0.00926    0.00926
                         0.00926    0.00926    0.00926    0.00926    0.00463    0.00926
                         0.00926    0.00463    0.00926    0.00926    0.00926    0.00926
                         0.00926    0.00926    0.00926    0.00926    0.00926    0.00926
                         0.00926    0.00926    0.00926    0.00926    0.00926    0.00926
                         0.00926    0.00926    0.00926    0.00926    0.00926    0.00926
                         0.00926    0.00926    0.00926    0.00926    0.00926    0.00926
                         0.00926    0.00926
                       outvars : Printing only first  50 k-points.
           xangst      0.0000000000E+00  0.0000000000E+00  0.0000000000E+00
                       2.5377840000E+00  2.5377840000E+00  0.0000000000E+00
                       0.0000000000E+00  2.5377840000E+00  2.5377840000E+00
                       2.5377840000E+00  0.0000000000E+00  2.5377840000E+00
                       1.2689242770E+00  1.2689242770E+00  1.0234194571E+00
                       1.2688260153E+00  1.2688260153E+00  3.5612132522E+00
                       3.8066437230E+00  3.8066437230E+00  1.0234194571E+00
                       3.8067419847E+00  3.8067419847E+00  3.5612132522E+00
                       1.2688260153E+00  3.8067419847E+00  1.5143547478E+00
                       1.2689242770E+00  3.8066437230E+00  4.0521485429E+00
                       3.8067419847E+00  1.2688260153E+00  1.5143547478E+00
                       3.8066437230E+00  1.2689242770E+00  4.0521485429E+00
            xcart      0.0000000000E+00  0.0000000000E+00  0.0000000000E+00
                       4.7957167444E+00  4.7957167444E+00  0.0000000000E+00
                       0.0000000000E+00  4.7957167444E+00  4.7957167444E+00
                       4.7957167444E+00  0.0000000000E+00  4.7957167444E+00
                       2.3979193669E+00  2.3979193669E+00  1.9339824929E+00
                       2.3977336793E+00  2.3977336793E+00  6.7297177474E+00
                       7.1935141219E+00  7.1935141219E+00  1.9339824929E+00
                       7.1936998096E+00  7.1936998096E+00  6.7297177474E+00
                       2.3977336793E+00  7.1936998096E+00  2.8617157415E+00
                       2.3979193669E+00  7.1935141219E+00  7.6574509959E+00
                       7.1936998096E+00  2.3977336793E+00  2.8617157415E+00
                       7.1935141219E+00  2.3979193669E+00  7.6574509959E+00
             xred      0.0000000000E+00  0.0000000000E+00  0.0000000000E+00
[...]
    7     -0.00000129051016    -0.00000129051016    -0.00000009963867
    8      0.00000119527935     0.00000119527935    -0.00000202534203
    9     -0.00000119527935     0.00000119527935     0.00000202534203
   10      0.00000129051016    -0.00000129051016     0.00000009963867
   11      0.00000119527935    -0.00000119527935     0.00000202534203
   12     -0.00000129051016     0.00000129051016     0.00000009963867
 frms,max,avg= 1.0697952E-06 2.0253420E-06   0.000E+00  0.000E+00  0.000E+00 h/b

 cartesian forces (eV/Angstrom) at end:
    1      0.00000000000000    -0.00000000000000     0.00000000000000
    2      0.00000000000000    -0.00000000000000     0.00000000000000
    3      0.00000000000000    -0.00000000000000     0.00000000000000
    4      0.00000000000000    -0.00000000000000     0.00000000000000
    5      0.00006636069493     0.00006636069493    -0.00000512362586
    6     -0.00006146373045    -0.00006146373045    -0.00010414726562
    7     -0.00006636069493    -0.00006636069493    -0.00000512362586
    8      0.00006146373045     0.00006146373045    -0.00010414726562
    9     -0.00006146373045     0.00006146373045     0.00010414726562
   10      0.00006636069493    -0.00006636069493     0.00000512362586
   11      0.00006146373045    -0.00006146373045     0.00010414726562
   12     -0.00006636069493     0.00006636069493     0.00000512362586
 frms,max,avg= 5.5011078E-05 1.0414727E-04   0.000E+00  0.000E+00  0.000E+00 e/A
 length scales=  9.591433488838  9.591433488838  9.591433488838 bohr
              =  5.075568000000  5.075568000000  5.075568000000 angstroms
 prteigrs : about to open file o_DS2_EIG
 Fermi (or HOMO) energy (hartree) =   0.27714   Average Vxc (hartree)=  -0.44601
 Eigenvalues (hartree) for nkpt= 112  k points:
 kpt#   1, nband= 48, wtk=  0.00463, kpt=  0.0000  0.0000  0.0000 (reduced coord)
  -1.94370   -1.94303   -1.94301   -1.94300   -0.80523   -0.80523   -0.80489   -0.79312
  -0.79312   -0.79281   -0.79281   -0.79147   -0.79147   -0.78862   -0.78698   -0.78698
  -0.39504   -0.33819   -0.32893   -0.32893   -0.31889   -0.31581   -0.31581   -0.29679
   0.06029    0.06029    0.07167    0.09588    0.10257    0.10257    0.16431    0.16431
   0.16650    0.16650    0.17274    0.17274    0.22370    0.22370    0.22845    0.22845
   0.24960    0.24960    0.25533    0.25534    0.25962    0.26629    0.26629    0.27519
 prteigrs : prtvol=0 or 1, do not print more k-points.

--- !EnergyTerms
iteration_state     : {dtset: 2, }
comment             : Components of total free energy in Hartree
kinetic             :  1.46191252881667E+02
hartree             :  5.59161463291120E+01
xc                  : -9.09038775708646E+01
Ewald energy        : -2.70166846762019E+02
psp_core            :  1.49595106529080E+01
local_psp           : -2.05517842481926E+02
non_local_psp       : -9.11261109278179E+00
electric            :  0.00000000000000E+00
kohn_sham           : -3.58634268043904E+02
total_energy        : -3.58634268043904E+02
total_energy_eV     : -9.75893473309280E+03
band_energy         : -3.10953767120326E+01
...

Constant unreduced E calculation  - final values:
 (a. u.)
       E:   0.000000000E+00   0.000000000E+00   0.000000000E+00
       P:   5.652012632E-15  -5.668398393E-13   1.751960926E-13

    ebar:   0.000000000E+00   0.000000000E+00   0.000000000E+00
    pbar:   6.812343014E-13  -6.832092691E-11   2.111629884E-11

       e:   0.000000000E+00   0.000000000E+00   0.000000000E+00
       p:   5.199602727E-13  -5.214676906E-11   1.611726902E-11

 (S.I.), that is V/m for E, and C/m^2 for P
-      E:   0.000000000E+00   0.000000000E+00   0.000000000E+00
       P:   3.233785546E-13  -3.243160620E-11   1.002380265E-11

 Please check: COMMENT -
  As a rough estimate,
  to be below the critical field, the bandgap of your system
  should be larger than    0.00 eV.

 Cartesian components of stress tensor (hartree/bohr^3)
  sigma(1 1)= -1.72358478E-04  sigma(3 2)=  0.00000000E+00
  sigma(2 2)= -1.72358478E-04  sigma(3 1)=  0.00000000E+00
  sigma(3 3)= -4.75296061E-04  sigma(2 1)=  0.00000000E+00

-Cartesian components of stress tensor (GPa)         [Pressure=  8.0419E+00 GPa]
- sigma(1 1)= -5.07096064E+00  sigma(3 2)=  0.00000000E+00
- sigma(2 2)= -5.07096064E+00  sigma(3 1)=  0.00000000E+00
- sigma(3 3)= -1.39836905E+01  sigma(2 1)=  0.00000000E+00

== END DATASET(S) ==============================================================

 -outvars: echo values of variables after computation  --------
            acell      9.5914334888E+00  9.5914334888E+00  9.5914334888E+00 Bohr
              amu      1.78490000E+02  1.59994000E+01
         berryopt1         -1
         berryopt2          4
          chkprim           0
             ecut      2.50000000E+01 Hartree
           ecutsm      5.00000000E-01 Hartree
           etotal1    -3.5863426804E+02
           etotal2    -3.5863426804E+02
            fcart1    -1.7646519734E-23 -5.2939559203E-23  4.9630836753E-23
                      -1.7646519734E-23 -5.2939559203E-23  4.9630836753E-23
                      -1.7646519734E-23 -5.2939559203E-23  4.9630836753E-23
                      -1.7646519734E-23 -5.2939559203E-23  4.9630836753E-23
                       1.2924996829E-06  1.2924996829E-06 -7.6887303401E-08
                      -1.1940065130E-06 -1.1940065130E-06 -2.0509881846E-06
                      -1.2924996829E-06 -1.2924996829E-06 -7.6887303401E-08
                       1.1940065130E-06  1.1940065130E-06 -2.0509881846E-06
                      -1.1940065130E-06  1.1940065130E-06  2.0509881846E-06
                       1.2924996829E-06 -1.2924996829E-06  7.6887303401E-08
                       1.1940065130E-06 -1.1940065130E-06  2.0509881846E-06
                      -1.2924996829E-06  1.2924996829E-06  7.6887303401E-08
            fcart2     0.0000000000E+00 -1.7646519734E-23  3.3087224502E-24
                       0.0000000000E+00 -1.7646519734E-23  3.3087224502E-24
                       0.0000000000E+00 -1.7646519734E-23  3.3087224502E-24
                       0.0000000000E+00 -1.7646519734E-23  3.3087224502E-24
                       1.2905101587E-06  1.2905101587E-06 -9.9638667598E-08
                      -1.1952793534E-06 -1.1952793534E-06 -2.0253420254E-06
                      -1.2905101587E-06 -1.2905101587E-06 -9.9638667598E-08
                       1.1952793534E-06  1.1952793534E-06 -2.0253420254E-06
                      -1.1952793534E-06  1.1952793534E-06  2.0253420254E-06
                       1.2905101587E-06 -1.2905101587E-06  9.9638667598E-08
                       1.1952793534E-06 -1.1952793534E-06  2.0253420254E-06
                      -1.2905101587E-06  1.2905101587E-06  9.9638667598E-08
-          fftalg         512
           getwfk1          0
           getwfk2          1
           istwfk        1    0    0    1    0    0    0    0    0    0
                         0    0    0    0    0    0    1    0    0    1
                         0    0    0    0    0    0    0    0    0    0
                         0    0    0    0    0    0    0    0    0    0
                         0    0    0    0    0    0    0    0    0    0
                       outvar_i_n : Printing only first  50 k-points.
              ixc          11
           jdtset        1    2
              kpt      0.00000000E+00  0.00000000E+00  0.00000000E+00
                       1.66666667E-01  0.00000000E+00  0.00000000E+00
                       3.33333333E-01  0.00000000E+00  0.00000000E+00
                       5.00000000E-01  0.00000000E+00  0.00000000E+00
                       0.00000000E+00  1.66666667E-01  0.00000000E+00
                       1.66666667E-01  1.66666667E-01  0.00000000E+00
                       3.33333333E-01  1.66666667E-01  0.00000000E+00
                       5.00000000E-01  1.66666667E-01  0.00000000E+00
                      -3.33333333E-01  1.66666667E-01  0.00000000E+00
                      -1.66666667E-01  1.66666667E-01  0.00000000E+00
                       0.00000000E+00  3.33333333E-01  0.00000000E+00
                       1.66666667E-01  3.33333333E-01  0.00000000E+00
                       3.33333333E-01  3.33333333E-01  0.00000000E+00
                       5.00000000E-01  3.33333333E-01  0.00000000E+00
                      -3.33333333E-01  3.33333333E-01  0.00000000E+00
                      -1.66666667E-01  3.33333333E-01  0.00000000E+00
                       0.00000000E+00  5.00000000E-01  0.00000000E+00
                       1.66666667E-01  5.00000000E-01  0.00000000E+00
                       3.33333333E-01  5.00000000E-01  0.00000000E+00
                       5.00000000E-01  5.00000000E-01  0.00000000E+00
                       0.00000000E+00  0.00000000E+00  1.66666667E-01
                       1.66666667E-01  0.00000000E+00  1.66666667E-01
                       3.33333333E-01  0.00000000E+00  1.66666667E-01
                       5.00000000E-01  0.00000000E+00  1.66666667E-01
                      -3.33333333E-01  0.00000000E+00  1.66666667E-01
                      -1.66666667E-01  0.00000000E+00  1.66666667E-01
                       0.00000000E+00  1.66666667E-01  1.66666667E-01
                       1.66666667E-01  1.66666667E-01  1.66666667E-01
                       3.33333333E-01  1.66666667E-01  1.66666667E-01
                       5.00000000E-01  1.66666667E-01  1.66666667E-01
                      -3.33333333E-01  1.66666667E-01  1.66666667E-01
                      -1.66666667E-01  1.66666667E-01  1.66666667E-01
                       0.00000000E+00  3.33333333E-01  1.66666667E-01
                       1.66666667E-01  3.33333333E-01  1.66666667E-01
                       3.33333333E-01  3.33333333E-01  1.66666667E-01
                       5.00000000E-01  3.33333333E-01  1.66666667E-01
                      -3.33333333E-01  3.33333333E-01  1.66666667E-01
                      -1.66666667E-01  3.33333333E-01  1.66666667E-01
                       0.00000000E+00  5.00000000E-01  1.66666667E-01
                       1.66666667E-01  5.00000000E-01  1.66666667E-01
                       3.33333333E-01  5.00000000E-01  1.66666667E-01
                       5.00000000E-01  5.00000000E-01  1.66666667E-01
                      -3.33333333E-01  5.00000000E-01  1.66666667E-01
                      -1.66666667E-01  5.00000000E-01  1.66666667E-01
                       0.00000000E+00 -3.33333333E-01  1.66666667E-01
                       1.66666667E-01 -3.33333333E-01  1.66666667E-01
                       3.33333333E-01 -3.33333333E-01  1.66666667E-01
                       5.00000000E-01 -3.33333333E-01  1.66666667E-01
                      -3.33333333E-01 -3.33333333E-01  1.66666667E-01
                      -1.66666667E-01 -3.33333333E-01  1.66666667E-01
                       outvar_i_n : Printing only first  50 k-points.
           kptopt           2
         kptrlatt        6    0    0      0    6    0      0    0    6
          kptrlen      5.75486009E+01
P           mkmem           4
            natom          12
            nband          48
           ndtset           2
            ngfft          45      45      45
             nkpt         112
            nstep         100
             nsym           8
           ntypat           2
              occ      2.000000  2.000000  2.000000  2.000000  2.000000  2.000000
                       2.000000  2.000000  2.000000  2.000000  2.000000  2.000000
                       2.000000  2.000000  2.000000  2.000000  2.000000  2.000000
                       2.000000  2.000000  2.000000  2.000000  2.000000  2.000000
                       2.000000  2.000000  2.000000  2.000000  2.000000  2.000000
                       2.000000  2.000000  2.000000  2.000000  2.000000  2.000000
                       2.000000  2.000000  2.000000  2.000000  2.000000  2.000000
                       2.000000  2.000000  2.000000  2.000000  2.000000  2.000000
        pawecutdg      2.50000000E+01 Hartree
         pawxcdev           0
            rfdir1          1       1       1
            rfdir2          0       0       0
          spgroup         111
           strten1    -1.7235850795E-04 -1.7235850795E-04 -4.7529612068E-04
                       0.0000000000E+00  0.0000000000E+00  0.0000000000E+00
           strten2    -1.7235847777E-04 -1.7235847777E-04 -4.7529606098E-04
                       0.0000000000E+00  0.0000000000E+00  0.0000000000E+00
        symmorphi           0
           symrel      1  0  0   0  1  0   0  0  1      -1  0  0   0  1  0   0  0 -1
                      -1  0  0   0 -1  0   0  0  1       1  0  0   0 -1  0   0  0 -1
                       0  1  0   1  0  0   0  0  1       0 -1  0   1  0  0   0  0 -1
                       0 -1  0  -1  0  0   0  0  1       0  1  0  -1  0  0   0  0 -1
           toldfe      1.00000000E-10 Hartree
           tolmxf      1.00000000E-05
           tsmear      4.00000000E-02 Hartree
            typat      1  1  1  1  2  2  2  2  2  2  2  2
              wtk        0.00463    0.00926    0.00926    0.00463    0.00926    0.00926
                         0.00926    0.00926    0.00926    0.00926    0.00926    0.00926
                         0.00926    0.00926    0.00926    0.00926    0.00463    0.00926
                         0.00926    0.00463    0.00926    0.00926    0.00926    0.00926
                         0.00926    0.00926    0.00926    0.00926    0.00926    0.00926
                         0.00926    0.00926    0.00926    0.00926    0.00926    0.00926
                         0.00926    0.00926    0.00926    0.00926    0.00926    0.00926
                         0.00926    0.00926    0.00926    0.00926    0.00926    0.00926
                         0.00926    0.00926
                       outvars : Printing only first  50 k-points.
           xangst      0.0000000000E+00  0.0000000000E+00  0.0000000000E+00
                       2.5377840000E+00  2.5377840000E+00  0.0000000000E+00
                       0.0000000000E+00  2.5377840000E+00  2.5377840000E+00
                       2.5377840000E+00  0.0000000000E+00  2.5377840000E+00
                       1.2689242770E+00  1.2689242770E+00  1.0234194571E+00
                       1.2688260153E+00  1.2688260153E+00  3.5612132522E+00
                       3.8066437230E+00  3.8066437230E+00  1.0234194571E+00
                       3.8067419847E+00  3.8067419847E+00  3.5612132522E+00
                       1.2688260153E+00  3.8067419847E+00  1.5143547478E+00
                       1.2689242770E+00  3.8066437230E+00  4.0521485429E+00
                       3.8067419847E+00  1.2688260153E+00  1.5143547478E+00
                       3.8066437230E+00  1.2689242770E+00  4.0521485429E+00
            xcart      0.0000000000E+00  0.0000000000E+00  0.0000000000E+00
                       4.7957167444E+00  4.7957167444E+00  0.0000000000E+00
                       0.0000000000E+00  4.7957167444E+00  4.7957167444E+00
                       4.7957167444E+00  0.0000000000E+00  4.7957167444E+00
                       2.3979193669E+00  2.3979193669E+00  1.9339824929E+00
                       2.3977336793E+00  2.3977336793E+00  6.7297177474E+00
                       7.1935141219E+00  7.1935141219E+00  1.9339824929E+00
                       7.1936998096E+00  7.1936998096E+00  6.7297177474E+00
                       2.3977336793E+00  7.1936998096E+00  2.8617157415E+00
                       2.3979193669E+00  7.1935141219E+00  7.6574509959E+00
                       7.1936998096E+00  2.3977336793E+00  2.8617157415E+00
                       7.1935141219E+00  2.3979193669E+00  7.6574509959E+00
             xred      0.0000000000E+00  0.0000000000E+00  0.0000000000E+00
                       5.0000000000E-01  5.0000000000E-01  0.0000000000E+00
                       0.0000000000E+00  5.0000000000E-01  5.0000000000E-01
                       5.0000000000E-01  0.0000000000E+00  5.0000000000E-01
                       2.5000635929E-01  2.5000635929E-01  2.0163643893E-01
                       2.4998699955E-01  2.4998699955E-01  7.0163836878E-01
                       7.4999364071E-01  7.4999364071E-01  2.0163643893E-01
                       7.5001300045E-01  7.5001300045E-01  7.0163836878E-01
                       2.4998699955E-01  7.5001300045E-01  2.9836163122E-01
                       2.5000635929E-01  7.4999364071E-01  7.9836356107E-01
                       7.5001300045E-01  2.4998699955E-01  2.9836163122E-01
                       7.4999364071E-01  2.5000635929E-01  7.9836356107E-01
            znucl       72.00000    8.00000

- Timing analysis has been suppressed with timopt=0

 Suggested references for the acknowledgment of ABINIT usage.

 Calculation completed.
.Delivered   0 WARNINGs and   2 COMMENTs to log file.