.Version 9.4.2 of ABINIT

 ABINIT is a project of the Universite Catholique de Louvain,
 Corning Inc. and other collaborators, see ~abinit/doc/developers/contributors.txt .
 acknowledgments of the ABINIT effort.

.Starting date : Sun 20 Jun 2021.
- ( at 14h41 )

- input  file    -> /p/work1/jiahaoz/HfO4/CUBIC_ITERATE/itertwo/P-0.05/itenoe10
- output file    -> /p/work1/jiahaoz/HfO4/CUBIC_ITERATE/itertwo/P-0.05/itenoe10.abo
- root for input  files -> i
- root for output files -> o

 DATASET    1 : space group P1 (#  1); Bravais aP (primitive triclinic)
     intxc =       0    ionmov =       0      iscf =       7    lmnmax =       8
     lnmax =       8     mgfft =      45  mpssoang =       4    mqgrid =    3001
     natom =      12  nloc_mem =       1    nspden =       1   nspinor =       1
    nsppol =       1      nsym =       1    n1xccc =    2501    ntypat =       2
    occopt =       1   xclevel =       2
-    mband =          48        mffmem =           1         mkmem =           4
       mpw =        5294          nfft =       91125          nkpt =         112
  Rough estimation (10% accuracy) of disk space for files :

 DATASET    2 : space group P1 (#  1); Bravais aP (primitive triclinic)
     intxc =       0    ionmov =       0      iscf =       7    lmnmax =       8
     lnmax =       8     mgfft =      45  mpssoang =       4    mqgrid =    3001
     natom =      12  nloc_mem =       1    nspden =       1   nspinor =       1
    nsppol =       1      nsym =       1    n1xccc =    2501    ntypat =       2
    occopt =       1   xclevel =       2
-    mband =          48        mffmem =           1         mkmem =           4
       mpw =        5294          nfft =       91125          nkpt =         112
  Rough estimation (10% accuracy) of disk space for files :

------------- Echo of variables that govern the present computation ------------
-
- outvars: echo of selected default values
-   iomode0 =  0 , fftalg0 =512 , wfoptalg0 =  0
-
- outvars: echo of global parameters not present in the input file
-  max_nthreads =    0
-
 -outvars: echo values of preprocessed input variables --------
            acell      9.5914334888E+00  9.5914334888E+00  9.5914334888E+00 Bohr
              amu      1.78490000E+02  1.59994000E+01
         berryopt1         -1
         berryopt2          4
          chkprim           0
             ecut      2.50000000E+01 Hartree
           ecutsm      5.00000000E-01 Hartree
-          fftalg         512
           getwfk1          0
           getwfk2          1
           istwfk        1    0    0    1    0    0    0    0    0    0
                         0    0    0    0    0    0    1    0    0    1
                         0    0    0    0    0    0    0    0    0    0
                         0    0    0    0    0    0    0    0    0    0
                         0    0    0    0    0    0    0    0    0    0
                       outvar_i_n : Printing only first  50 k-points.
              ixc          11
           jdtset        1    2
              kpt      0.00000000E+00  0.00000000E+00  0.00000000E+00
                       1.66666667E-01  0.00000000E+00  0.00000000E+00
                       3.33333333E-01  0.00000000E+00  0.00000000E+00
                       5.00000000E-01  0.00000000E+00  0.00000000E+00
                       0.00000000E+00  1.66666667E-01  0.00000000E+00
                       1.66666667E-01  1.66666667E-01  0.00000000E+00
                       3.33333333E-01  1.66666667E-01  0.00000000E+00
                       5.00000000E-01  1.66666667E-01  0.00000000E+00
                      -3.33333333E-01  1.66666667E-01  0.00000000E+00
                      -1.66666667E-01  1.66666667E-01  0.00000000E+00
                       0.00000000E+00  3.33333333E-01  0.00000000E+00
                       1.66666667E-01  3.33333333E-01  0.00000000E+00
                       3.33333333E-01  3.33333333E-01  0.00000000E+00
                       5.00000000E-01  3.33333333E-01  0.00000000E+00
                      -3.33333333E-01  3.33333333E-01  0.00000000E+00
                      -1.66666667E-01  3.33333333E-01  0.00000000E+00
                       0.00000000E+00  5.00000000E-01  0.00000000E+00
                       1.66666667E-01  5.00000000E-01  0.00000000E+00
                       3.33333333E-01  5.00000000E-01  0.00000000E+00
                       5.00000000E-01  5.00000000E-01  0.00000000E+00
                       0.00000000E+00  0.00000000E+00  1.66666667E-01
                       1.66666667E-01  0.00000000E+00  1.66666667E-01
                       3.33333333E-01  0.00000000E+00  1.66666667E-01
                       5.00000000E-01  0.00000000E+00  1.66666667E-01
                      -3.33333333E-01  0.00000000E+00  1.66666667E-01
                      -1.66666667E-01  0.00000000E+00  1.66666667E-01
                       0.00000000E+00  1.66666667E-01  1.66666667E-01
                       1.66666667E-01  1.66666667E-01  1.66666667E-01
                       3.33333333E-01  1.66666667E-01  1.66666667E-01
                       5.00000000E-01  1.66666667E-01  1.66666667E-01
                      -3.33333333E-01  1.66666667E-01  1.66666667E-01
                      -1.66666667E-01  1.66666667E-01  1.66666667E-01
                       0.00000000E+00  3.33333333E-01  1.66666667E-01
                       1.66666667E-01  3.33333333E-01  1.66666667E-01
                       3.33333333E-01  3.33333333E-01  1.66666667E-01
                       5.00000000E-01  3.33333333E-01  1.66666667E-01
                      -3.33333333E-01  3.33333333E-01  1.66666667E-01
                      -1.66666667E-01  3.33333333E-01  1.66666667E-01
                       0.00000000E+00  5.00000000E-01  1.66666667E-01
                       1.66666667E-01  5.00000000E-01  1.66666667E-01
                       3.33333333E-01  5.00000000E-01  1.66666667E-01
                       5.00000000E-01  5.00000000E-01  1.66666667E-01
                      -3.33333333E-01  5.00000000E-01  1.66666667E-01
                      -1.66666667E-01  5.00000000E-01  1.66666667E-01
                       0.00000000E+00 -3.33333333E-01  1.66666667E-01
                       1.66666667E-01 -3.33333333E-01  1.66666667E-01
                       3.33333333E-01 -3.33333333E-01  1.66666667E-01
                       5.00000000E-01 -3.33333333E-01  1.66666667E-01
                      -3.33333333E-01 -3.33333333E-01  1.66666667E-01
                      -1.66666667E-01 -3.33333333E-01  1.66666667E-01
                       outvar_i_n : Printing only first  50 k-points.
           kptopt           2
         kptrlatt        6    0    0      0    6    0      0    0    6
          kptrlen      5.75486009E+01
P           mkmem           4
            natom          12
            nband          48
           ndtset           2
            ngfft          45      45      45
             nkpt         112
            nstep         100
             nsym           1
           ntypat           2
              occ      2.000000  2.000000  2.000000  2.000000  2.000000  2.000000
                       2.000000  2.000000  2.000000  2.000000  2.000000  2.000000
                       2.000000  2.000000  2.000000  2.000000  2.000000  2.000000
                       2.000000  2.000000  2.000000  2.000000  2.000000  2.000000
                       2.000000  2.000000  2.000000  2.000000  2.000000  2.000000
                       2.000000  2.000000  2.000000  2.000000  2.000000  2.000000
                       2.000000  2.000000  2.000000  2.000000  2.000000  2.000000
                       2.000000  2.000000  2.000000  2.000000  2.000000  2.000000
        pawecutdg      2.50000000E+01 Hartree
         pawxcdev           0
            rfdir1          1       1       1
            rfdir2          0       0       0
          spgroup           1
        symmorphi           0
           toldfe      1.00000000E-10 Hartree
           tolmxf      1.00000000E-05
           tsmear      4.00000000E-02 Hartree
            typat      1  1  1  1  2  2  2  2  2  2  2  2
              wtk        0.00463    0.00926    0.00926    0.00463    0.00926    0.00926
                         0.00926    0.00926    0.00926    0.00926    0.00926    0.00926
                         0.00926    0.00926    0.00926    0.00926    0.00463    0.00926
                         0.00926    0.00463    0.00926    0.00926    0.00926    0.00926
                         0.00926    0.00926    0.00926    0.00926    0.00926    0.00926
                         0.00926    0.00926    0.00926    0.00926    0.00926    0.00926
                         0.00926    0.00926    0.00926    0.00926    0.00926    0.00926
                         0.00926    0.00926    0.00926    0.00926    0.00926    0.00926
                         0.00926    0.00926
                       outvars : Printing only first  50 k-points.
           xangst      2.3677737894E-01  1.7057004576E-02 -1.0199252385E-02
                       2.6112639115E+00  2.5548754169E+00 -3.1875074597E-01
                       2.3678884972E-01  2.5548954147E+00  2.2188894632E+00
                       2.6113512621E+00  1.7121413534E-02  2.5276771737E+00
                       1.6259633859E+00  1.2795578494E+00  1.0318741406E+00
                       1.2226197215E+00  1.2798752754E+00  3.5695679986E+00
                       4.3217281958E+00  3.2821501550E+00  5.0551758904E-01
                       3.6023884485E+00  3.2821994895E+00  3.0436883473E+00
                       1.6261797066E+00  3.8173781904E+00  1.1771127371E+00
                       1.2226264212E+00  3.8176516620E+00  3.7148602438E+00
                       4.3212467782E+00  7.4497562922E-01  1.7028302747E+00
                       3.6022741467E+00  7.4457709562E-01  4.2412034974E+00
            xcart      4.4744440066E-01  3.2233067297E-02 -1.9273793767E-02
                       4.9345736535E+00  4.8280148416E+00 -6.0235161453E-01
                       4.4746607730E-01  4.8280526319E+00  4.1930934046E+00
                       4.9347387221E+00  3.2354782588E-02  4.7766176107E+00
                       3.0726255014E+00  2.4180139065E+00  1.9499595294E+00
                       2.3104164383E+00  2.4186137547E+00  6.7455059300E+00
                       8.1668827108E+00  6.2023649200E+00  9.5528979865E-01
                       6.8075275918E+00  6.2024581487E+00  5.7517374103E+00
                       3.0730342883E+00  7.2137993255E+00  2.2244207007E+00
                       2.3104290990E+00  7.2143161120E+00  7.0200684827E+00
                       8.1659729634E+00  1.4077999149E+00  3.2178828700E+00
                       6.8073115928E+00  1.4070467955E+00  8.0147130839E+00
             xred      4.6650420000E-02  3.3606100000E-03 -2.0094800000E-03
                       5.1447718000E-01  5.0336739000E-01 -6.2801000000E-02
                       4.6652680000E-02  5.0337133000E-01  4.3717067000E-01
                       5.1449439000E-01  3.3733000000E-03  4.9800873000E-01
                       3.2035102000E-01  2.5210141000E-01  2.0330220000E-01
                       2.4088333000E-01  2.5216395000E-01  7.0328444000E-01
[...]
    3     -0.00012381188182     0.00257628605176    -0.00000710400153
    4      0.00012140165651     0.00257622797076     0.00004018886271
    5     -0.00006137943613    -0.00129651633314     0.00015311486142
    6      0.00006290585832    -0.00129671054731     0.00015270538756
    7     -0.00032626564055    -0.00127786999989     0.00016508498173
    8      0.00032788584037    -0.00127785981331     0.00016432216421
    9     -0.00006244484658    -0.00129913223094    -0.00017052948363
   10      0.00006408800422    -0.00129932925021    -0.00017000970124
   11     -0.00032045462834    -0.00127893966641    -0.00018114845887
   12      0.00032228721255    -0.00127894584631    -0.00018053696727
 frms,max,avg= 1.0613112E-03 2.5765953E-03   3.470E-05  9.524E-07 -9.124E-07 h/b

 cartesian forces (eV/Angstrom) at end:
    1     -0.00641879002749     0.13247323056227     0.00209583957347
    2      0.00620219317305     0.13249384520718    -0.00035199631696
    3     -0.00636666241080     0.13247794415499    -0.00036530241563
    4      0.00624272365276     0.13247495751000     0.00206659423795
    5     -0.00315625724320    -0.06666954481248     0.00787348207962
    6      0.00323474902152    -0.06667953170591     0.00785242608908
    7     -0.01677725238594    -0.06571071188561     0.00848901036285
    8      0.01686056640340    -0.06571018807066     0.00844978471179
    9     -0.00321104284710    -0.06680405967443    -0.00876897788325
   10      0.00329553740271    -0.06681419081178    -0.00874224960041
   11     -0.01647843814852    -0.06576571634539    -0.00931502749896
   12      0.01657267340961    -0.06576603412817    -0.00928358333955
 frms,max,avg= 5.4574811E-02 1.3249385E-01   1.784E-03  4.897E-05 -4.692E-05 e/A
 length scales=  9.591433488838  9.591433488838  9.591433488838 bohr
              =  5.075568000000  5.075568000000  5.075568000000 angstroms
 prteigrs : about to open file o_DS2_EIG
 Fermi (or HOMO) energy (hartree) =   0.27944   Average Vxc (hartree)=  -0.44613
 Eigenvalues (hartree) for nkpt= 112  k points:
 kpt#   1, nband= 48, wtk=  0.00463, kpt=  0.0000  0.0000  0.0000 (reduced coord)
  -1.94350   -1.94275   -1.94268   -1.94265   -0.80682   -0.80614   -0.80612   -0.79588
  -0.79315   -0.79311   -0.79309   -0.79302   -0.79204   -0.78796   -0.78789   -0.78748
  -0.39867   -0.34472   -0.34190   -0.33615   -0.31860   -0.31131   -0.31012   -0.30884
   0.06758    0.07008    0.07506    0.09957    0.10759    0.10852    0.15937    0.15945
   0.16034    0.16128    0.17640    0.19034    0.19652    0.20427    0.20928    0.21490
   0.22833    0.23171    0.23429    0.23753    0.24592    0.26548    0.27927    0.27944
 prteigrs : prtvol=0 or 1, do not print more k-points.

--- !EnergyTerms
iteration_state     : {dtset: 2, }
comment             : Components of total free energy in Hartree
kinetic             :  1.46322058214816E+02
hartree             :  5.63359871598684E+01
xc                  : -9.09329827076779E+01
Ewald energy        : -2.69502391304842E+02
psp_core            :  1.49595106529080E+01
local_psp           : -2.06696807863247E+02
non_local_psp       : -9.12546224666532E+00
electric            :  0.00000000000000E+00
kohn_sham           : -3.58640088094840E+02
total_energy        : -3.58640088094840E+02
total_energy_eV     : -9.75909310473291E+03
band_energy         : -3.13514319223416E+01
...

Constant unreduced E calculation  - final values:
 (a. u.)
       E:   0.000000000E+00   0.000000000E+00   0.000000000E+00
       P:  -9.316888057E-06   9.287033718E-03  -2.991456101E-06

    ebar:   0.000000000E+00   0.000000000E+00   0.000000000E+00
    pbar:  -1.122959933E-03   1.119361604E+00  -3.605587319E-04

       e:   0.000000000E+00   0.000000000E+00   0.000000000E+00
       p:  -8.571126731E-04   8.543662054E-01  -2.752007880E-04

 (S.I.), that is V/m for E, and C/m^2 for P
-      E:   0.000000000E+00   0.000000000E+00   0.000000000E+00
       P:  -5.330635279E-04   5.313554190E-01  -1.711554473E-04

 Please check: COMMENT -
  As a rough estimate,
  to be below the critical field, the bandgap of your system
  should be larger than    0.00 eV.

 Cartesian components of stress tensor (hartree/bohr^3)
  sigma(1 1)= -2.06210755E-04  sigma(3 2)=  3.13143555E-08
  sigma(2 2)= -2.36637845E-04  sigma(3 1)= -1.18012400E-08
  sigma(3 3)= -5.70051115E-04  sigma(2 1)=  9.47902252E-08

-Cartesian components of stress tensor (GPa)         [Pressure=  9.9335E+00 GPa]
- sigma(1 1)= -6.06692884E+00  sigma(3 2)=  9.21299990E-04
- sigma(2 2)= -6.96212459E+00  sigma(3 1)= -3.47204411E-04
- sigma(3 3)= -1.67714800E+01  sigma(2 1)=  2.78882424E-03

== END DATASET(S) ==============================================================

 -outvars: echo values of variables after computation  --------
            acell      9.5914334888E+00  9.5914334888E+00  9.5914334888E+00 Bohr
              amu      1.78490000E+02  1.59994000E+01
         berryopt1         -1
         berryopt2          4
          chkprim           0
             ecut      2.50000000E+01 Hartree
           ecutsm      5.00000000E-01 Hartree
           etotal1    -3.5864008809E+02
           etotal2    -3.5864008809E+02
            fcart1    -1.2472797512E-04  2.5764637477E-03  4.0790272751E-05
                       1.2033261771E-04  2.5761022041E-03 -6.3822844421E-06
                      -1.2325627411E-04  2.5759224948E-03 -7.5515963023E-06
                       1.2091857179E-04  2.5768517618E-03  3.9985798264E-05
                      -6.1171153015E-05 -1.2964465551E-03  1.5323302230E-04
                       6.2642255326E-05 -1.2966869739E-03  1.5274044700E-04
                      -3.2660698112E-04 -1.2778107060E-03  1.6509793068E-04
                       3.2805647270E-04 -1.2778230587E-03  1.6425302874E-04
                      -6.2070650751E-05 -1.2991937754E-03 -1.7045506079E-04
                       6.3933607223E-05 -1.2992579128E-03 -1.7008887869E-04
                      -3.2061060879E-04 -1.2790860406E-03 -1.8104727431E-04
                       3.2256011815E-04 -1.2790351861E-03 -1.8057540520E-04
            fcart2    -1.2482560265E-04  2.5761943870E-03  4.0757593985E-05
                       1.2061346411E-04  2.5765952780E-03 -6.8452390882E-06
                      -1.2381188182E-04  2.5762860518E-03 -7.1040015306E-06
                       1.2140165651E-04  2.5762279708E-03  4.0188862711E-05
                      -6.1379436126E-05 -1.2965163331E-03  1.5311486142E-04
                       6.2905858317E-05 -1.2967105473E-03  1.5270538756E-04
                      -3.2626564055E-04 -1.2778699999E-03  1.6508498173E-04
                       3.2788584037E-04 -1.2778598133E-03  1.6432216421E-04
                      -6.2444846584E-05 -1.2991322309E-03 -1.7052948363E-04
                       6.4088004217E-05 -1.2993292502E-03 -1.7000970124E-04
                      -3.2045462834E-04 -1.2789396664E-03 -1.8114845887E-04
                       3.2228721255E-04 -1.2789458463E-03 -1.8053696727E-04
-          fftalg         512
           getwfk1          0
           getwfk2          1
           istwfk        1    0    0    1    0    0    0    0    0    0
                         0    0    0    0    0    0    1    0    0    1
                         0    0    0    0    0    0    0    0    0    0
                         0    0    0    0    0    0    0    0    0    0
                         0    0    0    0    0    0    0    0    0    0
                       outvar_i_n : Printing only first  50 k-points.
              ixc          11
           jdtset        1    2
              kpt      0.00000000E+00  0.00000000E+00  0.00000000E+00
                       1.66666667E-01  0.00000000E+00  0.00000000E+00
                       3.33333333E-01  0.00000000E+00  0.00000000E+00
                       5.00000000E-01  0.00000000E+00  0.00000000E+00
                       0.00000000E+00  1.66666667E-01  0.00000000E+00
                       1.66666667E-01  1.66666667E-01  0.00000000E+00
                       3.33333333E-01  1.66666667E-01  0.00000000E+00
                       5.00000000E-01  1.66666667E-01  0.00000000E+00
                      -3.33333333E-01  1.66666667E-01  0.00000000E+00
                      -1.66666667E-01  1.66666667E-01  0.00000000E+00
                       0.00000000E+00  3.33333333E-01  0.00000000E+00
                       1.66666667E-01  3.33333333E-01  0.00000000E+00
                       3.33333333E-01  3.33333333E-01  0.00000000E+00
                       5.00000000E-01  3.33333333E-01  0.00000000E+00
                      -3.33333333E-01  3.33333333E-01  0.00000000E+00
                      -1.66666667E-01  3.33333333E-01  0.00000000E+00
                       0.00000000E+00  5.00000000E-01  0.00000000E+00
                       1.66666667E-01  5.00000000E-01  0.00000000E+00
                       3.33333333E-01  5.00000000E-01  0.00000000E+00
                       5.00000000E-01  5.00000000E-01  0.00000000E+00
                       0.00000000E+00  0.00000000E+00  1.66666667E-01
                       1.66666667E-01  0.00000000E+00  1.66666667E-01
                       3.33333333E-01  0.00000000E+00  1.66666667E-01
                       5.00000000E-01  0.00000000E+00  1.66666667E-01
                      -3.33333333E-01  0.00000000E+00  1.66666667E-01
                      -1.66666667E-01  0.00000000E+00  1.66666667E-01
                       0.00000000E+00  1.66666667E-01  1.66666667E-01
                       1.66666667E-01  1.66666667E-01  1.66666667E-01
                       3.33333333E-01  1.66666667E-01  1.66666667E-01
                       5.00000000E-01  1.66666667E-01  1.66666667E-01
                      -3.33333333E-01  1.66666667E-01  1.66666667E-01
                      -1.66666667E-01  1.66666667E-01  1.66666667E-01
                       0.00000000E+00  3.33333333E-01  1.66666667E-01
                       1.66666667E-01  3.33333333E-01  1.66666667E-01
                       3.33333333E-01  3.33333333E-01  1.66666667E-01
                       5.00000000E-01  3.33333333E-01  1.66666667E-01
                      -3.33333333E-01  3.33333333E-01  1.66666667E-01
                      -1.66666667E-01  3.33333333E-01  1.66666667E-01
                       0.00000000E+00  5.00000000E-01  1.66666667E-01
                       1.66666667E-01  5.00000000E-01  1.66666667E-01
                       3.33333333E-01  5.00000000E-01  1.66666667E-01
                       5.00000000E-01  5.00000000E-01  1.66666667E-01
                      -3.33333333E-01  5.00000000E-01  1.66666667E-01
                      -1.66666667E-01  5.00000000E-01  1.66666667E-01
                       0.00000000E+00 -3.33333333E-01  1.66666667E-01
                       1.66666667E-01 -3.33333333E-01  1.66666667E-01
                       3.33333333E-01 -3.33333333E-01  1.66666667E-01
                       5.00000000E-01 -3.33333333E-01  1.66666667E-01
                      -3.33333333E-01 -3.33333333E-01  1.66666667E-01
                      -1.66666667E-01 -3.33333333E-01  1.66666667E-01
                       outvar_i_n : Printing only first  50 k-points.
           kptopt           2
         kptrlatt        6    0    0      0    6    0      0    0    6
          kptrlen      5.75486009E+01
P           mkmem           4
            natom          12
            nband          48
           ndtset           2
            ngfft          45      45      45
             nkpt         112
            nstep         100
             nsym           1
           ntypat           2
              occ      2.000000  2.000000  2.000000  2.000000  2.000000  2.000000
                       2.000000  2.000000  2.000000  2.000000  2.000000  2.000000
                       2.000000  2.000000  2.000000  2.000000  2.000000  2.000000
                       2.000000  2.000000  2.000000  2.000000  2.000000  2.000000
                       2.000000  2.000000  2.000000  2.000000  2.000000  2.000000
                       2.000000  2.000000  2.000000  2.000000  2.000000  2.000000
                       2.000000  2.000000  2.000000  2.000000  2.000000  2.000000
                       2.000000  2.000000  2.000000  2.000000  2.000000  2.000000
        pawecutdg      2.50000000E+01 Hartree
         pawxcdev           0
            rfdir1          1       1       1
            rfdir2          0       0       0
          spgroup           1
           strten1    -2.0620916137E-04 -2.3663689969E-04 -5.7005046539E-04
                       3.1282674555E-08 -1.2693780056E-08  9.4316058200E-08
           strten2    -2.0621075462E-04 -2.3663784485E-04 -5.7005111534E-04
                       3.1314355453E-08 -1.1801240034E-08  9.4790225188E-08
        symmorphi           0
           toldfe      1.00000000E-10 Hartree
           tolmxf      1.00000000E-05
           tsmear      4.00000000E-02 Hartree
            typat      1  1  1  1  2  2  2  2  2  2  2  2
              wtk        0.00463    0.00926    0.00926    0.00463    0.00926    0.00926
                         0.00926    0.00926    0.00926    0.00926    0.00926    0.00926
                         0.00926    0.00926    0.00926    0.00926    0.00463    0.00926
                         0.00926    0.00463    0.00926    0.00926    0.00926    0.00926
                         0.00926    0.00926    0.00926    0.00926    0.00926    0.00926
                         0.00926    0.00926    0.00926    0.00926    0.00926    0.00926
                         0.00926    0.00926    0.00926    0.00926    0.00926    0.00926
                         0.00926    0.00926    0.00926    0.00926    0.00926    0.00926
                         0.00926    0.00926
                       outvars : Printing only first  50 k-points.
           xangst      2.3677737894E-01  1.7057004576E-02 -1.0199252385E-02
                       2.6112639115E+00  2.5548754169E+00 -3.1875074597E-01
                       2.3678884972E-01  2.5548954147E+00  2.2188894632E+00
                       2.6113512621E+00  1.7121413534E-02  2.5276771737E+00
                       1.6259633859E+00  1.2795578494E+00  1.0318741406E+00
                       1.2226197215E+00  1.2798752754E+00  3.5695679986E+00
                       4.3217281958E+00  3.2821501550E+00  5.0551758904E-01
                       3.6023884485E+00  3.2821994895E+00  3.0436883473E+00
                       1.6261797066E+00  3.8173781904E+00  1.1771127371E+00
                       1.2226264212E+00  3.8176516620E+00  3.7148602438E+00
                       4.3212467782E+00  7.4497562922E-01  1.7028302747E+00
                       3.6022741467E+00  7.4457709562E-01  4.2412034974E+00
            xcart      4.4744440066E-01  3.2233067297E-02 -1.9273793767E-02
                       4.9345736535E+00  4.8280148416E+00 -6.0235161453E-01
                       4.4746607730E-01  4.8280526319E+00  4.1930934046E+00
                       4.9347387221E+00  3.2354782588E-02  4.7766176107E+00
                       3.0726255014E+00  2.4180139065E+00  1.9499595294E+00
                       2.3104164383E+00  2.4186137547E+00  6.7455059300E+00
                       8.1668827108E+00  6.2023649200E+00  9.5528979865E-01
                       6.8075275918E+00  6.2024581487E+00  5.7517374103E+00
                       3.0730342883E+00  7.2137993255E+00  2.2244207007E+00
                       2.3104290990E+00  7.2143161120E+00  7.0200684827E+00
                       8.1659729634E+00  1.4077999149E+00  3.2178828700E+00
                       6.8073115928E+00  1.4070467955E+00  8.0147130839E+00
             xred      4.6650420000E-02  3.3606100000E-03 -2.0094800000E-03
                       5.1447718000E-01  5.0336739000E-01 -6.2801000000E-02
                       4.6652680000E-02  5.0337133000E-01  4.3717067000E-01
                       5.1449439000E-01  3.3733000000E-03  4.9800873000E-01
                       3.2035102000E-01  2.5210141000E-01  2.0330220000E-01
                       2.4088333000E-01  2.5216395000E-01  7.0328444000E-01
                       8.5147676000E-01  6.4665672000E-01  9.9598230000E-02
                       7.0975080000E-01  6.4666644000E-01  5.9967443000E-01
                       3.2039364000E-01  7.5210857000E-01  2.3191744000E-01
                       2.4088465000E-01  7.5216245000E-01  7.3191025000E-01
                       8.5138191000E-01  1.4677680000E-01  3.3549551000E-01
                       7.0972828000E-01  1.4669828000E-01  8.3561160000E-01
            znucl       72.00000    8.00000

- Timing analysis has been suppressed with timopt=0

 Suggested references for the acknowledgment of ABINIT usage.

 Calculation completed.
.Delivered   0 WARNINGs and   2 COMMENTs to log file.