.Version 9.4.2 of ABINIT

 ABINIT is a project of the Universite Catholique de Louvain,
 Corning Inc. and other collaborators, see ~abinit/doc/developers/contributors.txt .
 acknowledgments of the ABINIT effort.

.Starting date : Wed 23 Jun 2021.
- ( at 02h14 )

- input  file    -> /p/work1/jiahaoz/HfO4/CUBIC_ITERATE/iterone/P0.24/itenoe10
- output file    -> /p/work1/jiahaoz/HfO4/CUBIC_ITERATE/iterone/P0.24/itenoe10.abo
- root for input  files -> i
- root for output files -> o

 DATASET    1 : space group P2 (#  3); Bravais mP (primitive monocl.)
     intxc =       0    ionmov =       0      iscf =       7    lmnmax =       8
     lnmax =       8     mgfft =      45  mpssoang =       4    mqgrid =    3001
     natom =      12  nloc_mem =       1    nspden =       1   nspinor =       1
    nsppol =       1      nsym =       2    n1xccc =    2501    ntypat =       2
    occopt =       1   xclevel =       2
-    mband =          48        mffmem =           1         mkmem =           4
       mpw =        5294          nfft =       91125          nkpt =         112
  Rough estimation (10% accuracy) of disk space for files :

 DATASET    2 : space group P2 (#  3); Bravais mP (primitive monocl.)
     intxc =       0    ionmov =       0      iscf =       7    lmnmax =       8
     lnmax =       8     mgfft =      45  mpssoang =       4    mqgrid =    3001
     natom =      12  nloc_mem =       1    nspden =       1   nspinor =       1
    nsppol =       1      nsym =       2    n1xccc =    2501    ntypat =       2
    occopt =       1   xclevel =       2
-    mband =          48        mffmem =           1         mkmem =           4
       mpw =        5294          nfft =       91125          nkpt =         112
  Rough estimation (10% accuracy) of disk space for files :

------------- Echo of variables that govern the present computation ------------
-
- outvars: echo of selected default values
-   iomode0 =  0 , fftalg0 =512 , wfoptalg0 =  0
-
- outvars: echo of global parameters not present in the input file
-  max_nthreads =    0
-
 -outvars: echo values of preprocessed input variables --------
            acell      9.5914334888E+00  9.5914334888E+00  9.5914334888E+00 Bohr
              amu      1.78490000E+02  1.59994000E+01
         berryopt1         -1
         berryopt2          4
          chkprim           0
             ecut      2.50000000E+01 Hartree
           ecutsm      5.00000000E-01 Hartree
-          fftalg         512
           getwfk1          0
           getwfk2          1
           istwfk        1    0    0    1    0    0    0    0    0    0
                         0    0    0    0    0    0    1    0    0    1
                         0    0    0    0    0    0    0    0    0    0
                         0    0    0    0    0    0    0    0    0    0
                         0    0    0    0    0    0    0    0    0    0
                       outvar_i_n : Printing only first  50 k-points.
              ixc          11
           jdtset        1    2
              kpt      0.00000000E+00  0.00000000E+00  0.00000000E+00
                       1.66666667E-01  0.00000000E+00  0.00000000E+00
                       3.33333333E-01  0.00000000E+00  0.00000000E+00
                       5.00000000E-01  0.00000000E+00  0.00000000E+00
                       0.00000000E+00  1.66666667E-01  0.00000000E+00
                       1.66666667E-01  1.66666667E-01  0.00000000E+00
                       3.33333333E-01  1.66666667E-01  0.00000000E+00
                       5.00000000E-01  1.66666667E-01  0.00000000E+00
                      -3.33333333E-01  1.66666667E-01  0.00000000E+00
                      -1.66666667E-01  1.66666667E-01  0.00000000E+00
                       0.00000000E+00  3.33333333E-01  0.00000000E+00
                       1.66666667E-01  3.33333333E-01  0.00000000E+00
                       3.33333333E-01  3.33333333E-01  0.00000000E+00
                       5.00000000E-01  3.33333333E-01  0.00000000E+00
                      -3.33333333E-01  3.33333333E-01  0.00000000E+00
                      -1.66666667E-01  3.33333333E-01  0.00000000E+00
                       0.00000000E+00  5.00000000E-01  0.00000000E+00
                       1.66666667E-01  5.00000000E-01  0.00000000E+00
                       3.33333333E-01  5.00000000E-01  0.00000000E+00
                       5.00000000E-01  5.00000000E-01  0.00000000E+00
                       0.00000000E+00  0.00000000E+00  1.66666667E-01
                       1.66666667E-01  0.00000000E+00  1.66666667E-01
                       3.33333333E-01  0.00000000E+00  1.66666667E-01
                       5.00000000E-01  0.00000000E+00  1.66666667E-01
                      -3.33333333E-01  0.00000000E+00  1.66666667E-01
                      -1.66666667E-01  0.00000000E+00  1.66666667E-01
                       0.00000000E+00  1.66666667E-01  1.66666667E-01
                       1.66666667E-01  1.66666667E-01  1.66666667E-01
                       3.33333333E-01  1.66666667E-01  1.66666667E-01
                       5.00000000E-01  1.66666667E-01  1.66666667E-01
                      -3.33333333E-01  1.66666667E-01  1.66666667E-01
                      -1.66666667E-01  1.66666667E-01  1.66666667E-01
                       0.00000000E+00  3.33333333E-01  1.66666667E-01
                       1.66666667E-01  3.33333333E-01  1.66666667E-01
                       3.33333333E-01  3.33333333E-01  1.66666667E-01
                       5.00000000E-01  3.33333333E-01  1.66666667E-01
                      -3.33333333E-01  3.33333333E-01  1.66666667E-01
                      -1.66666667E-01  3.33333333E-01  1.66666667E-01
                       0.00000000E+00  5.00000000E-01  1.66666667E-01
                       1.66666667E-01  5.00000000E-01  1.66666667E-01
                       3.33333333E-01  5.00000000E-01  1.66666667E-01
                       5.00000000E-01  5.00000000E-01  1.66666667E-01
                      -3.33333333E-01  5.00000000E-01  1.66666667E-01
                      -1.66666667E-01  5.00000000E-01  1.66666667E-01
                       0.00000000E+00 -3.33333333E-01  1.66666667E-01
                       1.66666667E-01 -3.33333333E-01  1.66666667E-01
                       3.33333333E-01 -3.33333333E-01  1.66666667E-01
                       5.00000000E-01 -3.33333333E-01  1.66666667E-01
                      -3.33333333E-01 -3.33333333E-01  1.66666667E-01
                      -1.66666667E-01 -3.33333333E-01  1.66666667E-01
                       outvar_i_n : Printing only first  50 k-points.
           kptopt           2
         kptrlatt        6    0    0      0    6    0      0    0    6
          kptrlen      5.75486009E+01
P           mkmem           4
            natom          12
            nband          48
           ndtset           2
            ngfft          45      45      45
             nkpt         112
            nstep         100
             nsym           2
           ntypat           2
              occ      2.000000  2.000000  2.000000  2.000000  2.000000  2.000000
                       2.000000  2.000000  2.000000  2.000000  2.000000  2.000000
                       2.000000  2.000000  2.000000  2.000000  2.000000  2.000000
                       2.000000  2.000000  2.000000  2.000000  2.000000  2.000000
                       2.000000  2.000000  2.000000  2.000000  2.000000  2.000000
                       2.000000  2.000000  2.000000  2.000000  2.000000  2.000000
                       2.000000  2.000000  2.000000  2.000000  2.000000  2.000000
                       2.000000  2.000000  2.000000  2.000000  2.000000  2.000000
        pawecutdg      2.50000000E+01 Hartree
         pawxcdev           0
            rfdir1          1       1       1
            rfdir2          0       0       0
          spgroup           3
        symmorphi           0
           symrel      1  0  0   0  1  0   0  0  1      -1  0  0   0  1  0   0  0 -1
           toldfe      1.00000000E-10 Hartree
           tolmxf      1.00000000E-05
           tsmear      4.00000000E-02 Hartree
            typat      1  1  1  1  2  2  2  2  2  2  2  2
              wtk        0.00463    0.00926    0.00926    0.00463    0.00926    0.00926
                         0.00926    0.00926    0.00926    0.00926    0.00926    0.00926
                         0.00926    0.00926    0.00926    0.00926    0.00463    0.00926
                         0.00926    0.00463    0.00926    0.00926    0.00926    0.00926
                         0.00926    0.00926    0.00926    0.00926    0.00926    0.00926
                         0.00926    0.00926    0.00926    0.00926    0.00926    0.00926
                         0.00926    0.00926    0.00926    0.00926    0.00926    0.00926
                         0.00926    0.00926    0.00926    0.00926    0.00926    0.00926
                         0.00926    0.00926
                       outvars : Printing only first  50 k-points.
           xangst      0.0000000000E+00  1.0048873456E-01  0.0000000000E+00
                       2.5377840000E+00  2.6383038985E+00  0.0000000000E+00
                       0.0000000000E+00  2.6382753739E+00  2.5377840000E+00
                       2.5377840000E+00  1.0050786945E-01  2.5377840000E+00
                       1.3450853102E+00  1.2674297796E+00  1.0118269667E+00
                       1.1926274796E+00  1.2672228995E+00  3.5496216761E+00
                       3.8828604279E+00  3.8050626292E+00  1.0118501113E+00
                       3.7305497381E+00  3.8052429134E+00  3.5496490335E+00
                       1.3450182619E+00  3.8052429134E+00  1.5259189665E+00
                       1.1927075721E+00  3.8050626292E+00  4.0637178887E+00
                       3.8829405204E+00  1.2672228995E+00  1.5259463239E+00
                       3.7304826898E+00  1.2674297796E+00  4.0637410333E+00
            xcart      0.0000000000E+00  1.8989618776E-01  0.0000000000E+00
                       4.7957167444E+00  4.9856718236E+00  0.0000000000E+00
                       0.0000000000E+00  4.9856179197E+00  4.7957167444E+00
                       4.7957167444E+00  1.8993234746E-01  4.7957167444E+00
                       2.5418428616E+00  2.3950951761E+00  1.9120758609E+00
                       2.2537393150E+00  2.3947042293E+00  6.7078128433E+00
                       7.3375428210E+00  7.1905262877E+00  1.9121195979E+00
                       7.0497173300E+00  7.1908669754E+00  6.7078645411E+00
                       2.5417161588E+00  7.1908669754E+00  2.8835689477E+00
                       2.2538906678E+00  7.1905262877E+00  7.6793138910E+00
                       7.3376941739E+00  2.3947042293E+00  2.8836206456E+00
                       7.0495906272E+00  2.3950951761E+00  7.6793576279E+00
             xred      0.0000000000E+00  1.9798520000E-02  0.0000000000E+00
                       5.0000000000E-01  5.1980466000E-01  0.0000000000E+00
                       0.0000000000E+00  5.1979904000E-01  5.0000000000E-01
                       5.0000000000E-01  1.9802290000E-02  5.0000000000E-01
[...]
    4      0.00000000000000    -0.00337243808276     0.00000000000000
    5      0.00037754609318     0.00168653175985    -0.00008433813381
    6     -0.00037741367539     0.00168646909626    -0.00008434058085
    7      0.00037738322517     0.00168617663909    -0.00008438774981
    8     -0.00037751463414     0.00168627513782    -0.00008424686536
    9      0.00037751463414     0.00168627513782     0.00008424686536
   10     -0.00037738322517     0.00168617663909     0.00008438774981
   11      0.00037741367539     0.00168646909626     0.00008434058085
   12     -0.00037754609318     0.00168653175985     0.00008433813381
 frms,max,avg= 1.3889287E-03 3.3730132E-03   0.000E+00 -2.974E-06  0.000E+00 h/b

 cartesian forces (eV/Angstrom) at end:
    1      0.00000000000000    -0.17343409348696     0.00000000000000
    2      0.00000000000000    -0.17343106786219     0.00000000000000
    3      0.00000000000000    -0.17344729755789     0.00000000000000
    4      0.00000000000000    -0.17341772420351     0.00000000000000
    5      0.01941419906171     0.08672494273050    -0.00433684084608
    6     -0.01940738986554     0.08672172043958    -0.00433696667814
    7      0.01940582405262     0.08670668168855    -0.00433939220363
    8     -0.01941258137290     0.08671174669663    -0.00433214763447
    9      0.01941258137290     0.08671174669663     0.00433214763447
   10     -0.01940582405262     0.08670668168855     0.00433939220363
   11      0.01940738986554     0.08672172043958     0.00433696667814
   12     -0.01941419906171     0.08672494273050     0.00433684084608
 frms,max,avg= 7.1421578E-02 1.7344730E-01   0.000E+00 -1.529E-04  0.000E+00 e/A
 length scales=  9.591433488838  9.591433488838  9.591433488838 bohr
              =  5.075568000000  5.075568000000  5.075568000000 angstroms
 prteigrs : about to open file o_DS2_EIG
 Fermi (or HOMO) energy (hartree) =   0.27653   Average Vxc (hartree)=  -0.44593
 Eigenvalues (hartree) for nkpt= 112  k points:
 kpt#   1, nband= 48, wtk=  0.00463, kpt=  0.0000  0.0000  0.0000 (reduced coord)
  -1.94296   -1.94229   -1.94226   -1.94226   -0.80499   -0.80487   -0.80460   -0.79368
  -0.79277   -0.79240   -0.79161   -0.79145   -0.79115   -0.78796   -0.78660   -0.78656
  -0.39524   -0.33817   -0.33019   -0.32870   -0.31886   -0.31670   -0.31545   -0.29901
   0.06071    0.06110    0.07233    0.09608    0.10342    0.10458    0.15973    0.16343
   0.16657    0.17015    0.17183    0.17185    0.21692    0.22294    0.22443    0.22957
   0.24278    0.25116    0.25244    0.25401    0.25512    0.26561    0.26971    0.27518
 prteigrs : prtvol=0 or 1, do not print more k-points.

--- !EnergyTerms
iteration_state     : {dtset: 2, }
comment             : Components of total free energy in Hartree
kinetic             :  1.46254172183242E+02
hartree             :  5.60326787093436E+01
xc                  : -9.09178595837457E+01
Ewald energy        : -2.70029447359155E+02
psp_core            :  1.49595106529080E+01
local_psp           : -2.05811455542873E+02
non_local_psp       : -9.12087510324655E+00
electric            :  0.00000000000000E+00
kohn_sham           : -3.58633276043527E+02
total_energy        : -3.58633276043527E+02
total_energy_eV     : -9.75890773938976E+03
band_energy         : -3.11190533855039E+01
...

Constant unreduced E calculation  - final values:
 (a. u.)
       E:   0.000000000E+00   0.000000000E+00   0.000000000E+00
       P:  -8.652813809E-14   4.007026785E-03  -5.674540323E-14

    ebar:   0.000000000E+00   0.000000000E+00   0.000000000E+00
    pbar:  -1.042919391E-11   4.829649667E-01  -6.839495530E-12

       e:   0.000000000E+00   0.000000000E+00   0.000000000E+00
       p:  -7.960207667E-12   3.686288188E-01  -5.220327212E-12

 (S.I.), that is V/m for E, and C/m^2 for P
-      E:   0.000000000E+00   0.000000000E+00   0.000000000E+00
       P:  -4.950686782E-12   2.292610818E-01  -3.246674711E-12

 Please check: COMMENT -
  As a rough estimate,
  to be below the critical field, the bandgap of your system
  should be larger than    0.00 eV.

 Cartesian components of stress tensor (hartree/bohr^3)
  sigma(1 1)= -1.96773618E-04  sigma(3 2)=  0.00000000E+00
  sigma(2 2)= -2.03669793E-04  sigma(3 1)=  5.51659701E-09
  sigma(3 3)= -4.93454500E-04  sigma(2 1)=  0.00000000E+00

-Cartesian components of stress tensor (GPa)         [Pressure=  8.7665E+00 GPa]
- sigma(1 1)= -5.78927876E+00  sigma(3 2)=  0.00000000E+00
- sigma(2 2)= -5.99217119E+00  sigma(3 1)=  1.62303860E-04
- sigma(3 3)= -1.45179302E+01  sigma(2 1)=  0.00000000E+00

== END DATASET(S) ==============================================================

 -outvars: echo values of variables after computation  --------
            acell      9.5914334888E+00  9.5914334888E+00  9.5914334888E+00 Bohr
              amu      1.78490000E+02  1.59994000E+01
         berryopt1         -1
         berryopt2          4
          chkprim           0
             ecut      2.50000000E+01 Hartree
           ecutsm      5.00000000E-01 Hartree
           etotal1    -3.5863327604E+02
           etotal2    -3.5863327604E+02
            fcart1     0.0000000000E+00 -3.3736828290E-03  1.1293772630E-21
                       0.0000000000E+00 -3.3718651707E-03  1.1293772630E-21
                       0.0000000000E+00 -3.3722492344E-03  1.1293772630E-21
                       0.0000000000E+00 -3.3732676133E-03  1.1293772630E-21
                       3.7755119882E-04  1.6865601301E-03 -8.4348952126E-05
                      -3.7741107482E-04  1.6864972099E-03 -8.4469845620E-05
                       3.7735709423E-04  1.6861942312E-03 -8.4234413301E-05
                      -3.7752023990E-04  1.6862808524E-03 -8.4425178663E-05
                       3.7752023990E-04  1.6862808524E-03  8.4425178663E-05
                      -3.7735709423E-04  1.6861942312E-03  8.4234413301E-05
                       3.7741107482E-04  1.6864972099E-03  8.4469845620E-05
                      -3.7755119882E-04  1.6865601301E-03  8.4348952126E-05
            fcart2     0.0000000000E+00 -3.3727564147E-03  2.2587545260E-21
                       0.0000000000E+00 -3.3726975756E-03  2.2587545260E-21
                       0.0000000000E+00 -3.3730131930E-03  2.2587545260E-21
                       0.0000000000E+00 -3.3724380828E-03  2.2587545260E-21
                       3.7754609318E-04  1.6865317598E-03 -8.4338133806E-05
                      -3.7741367539E-04  1.6864690963E-03 -8.4340580850E-05
                       3.7738322517E-04  1.6861766391E-03 -8.4387749815E-05
                      -3.7751463414E-04  1.6862751378E-03 -8.4246865364E-05
                       3.7751463414E-04  1.6862751378E-03  8.4246865364E-05
                      -3.7738322517E-04  1.6861766391E-03  8.4387749815E-05
                       3.7741367539E-04  1.6864690963E-03  8.4340580850E-05
                      -3.7754609318E-04  1.6865317598E-03  8.4338133806E-05
-          fftalg         512
           getwfk1          0
           getwfk2          1
           istwfk        1    0    0    1    0    0    0    0    0    0
                         0    0    0    0    0    0    1    0    0    1
                         0    0    0    0    0    0    0    0    0    0
                         0    0    0    0    0    0    0    0    0    0
                         0    0    0    0    0    0    0    0    0    0
                       outvar_i_n : Printing only first  50 k-points.
              ixc          11
           jdtset        1    2
              kpt      0.00000000E+00  0.00000000E+00  0.00000000E+00
                       1.66666667E-01  0.00000000E+00  0.00000000E+00
                       3.33333333E-01  0.00000000E+00  0.00000000E+00
                       5.00000000E-01  0.00000000E+00  0.00000000E+00
                       0.00000000E+00  1.66666667E-01  0.00000000E+00
                       1.66666667E-01  1.66666667E-01  0.00000000E+00
                       3.33333333E-01  1.66666667E-01  0.00000000E+00
                       5.00000000E-01  1.66666667E-01  0.00000000E+00
                      -3.33333333E-01  1.66666667E-01  0.00000000E+00
                      -1.66666667E-01  1.66666667E-01  0.00000000E+00
                       0.00000000E+00  3.33333333E-01  0.00000000E+00
                       1.66666667E-01  3.33333333E-01  0.00000000E+00
                       3.33333333E-01  3.33333333E-01  0.00000000E+00
                       5.00000000E-01  3.33333333E-01  0.00000000E+00
                      -3.33333333E-01  3.33333333E-01  0.00000000E+00
                      -1.66666667E-01  3.33333333E-01  0.00000000E+00
                       0.00000000E+00  5.00000000E-01  0.00000000E+00
                       1.66666667E-01  5.00000000E-01  0.00000000E+00
                       3.33333333E-01  5.00000000E-01  0.00000000E+00
                       5.00000000E-01  5.00000000E-01  0.00000000E+00
                       0.00000000E+00  0.00000000E+00  1.66666667E-01
                       1.66666667E-01  0.00000000E+00  1.66666667E-01
                       3.33333333E-01  0.00000000E+00  1.66666667E-01
                       5.00000000E-01  0.00000000E+00  1.66666667E-01
                      -3.33333333E-01  0.00000000E+00  1.66666667E-01
                      -1.66666667E-01  0.00000000E+00  1.66666667E-01
                       0.00000000E+00  1.66666667E-01  1.66666667E-01
                       1.66666667E-01  1.66666667E-01  1.66666667E-01
                       3.33333333E-01  1.66666667E-01  1.66666667E-01
                       5.00000000E-01  1.66666667E-01  1.66666667E-01
                      -3.33333333E-01  1.66666667E-01  1.66666667E-01
                      -1.66666667E-01  1.66666667E-01  1.66666667E-01
                       0.00000000E+00  3.33333333E-01  1.66666667E-01
                       1.66666667E-01  3.33333333E-01  1.66666667E-01
                       3.33333333E-01  3.33333333E-01  1.66666667E-01
                       5.00000000E-01  3.33333333E-01  1.66666667E-01
                      -3.33333333E-01  3.33333333E-01  1.66666667E-01
                      -1.66666667E-01  3.33333333E-01  1.66666667E-01
                       0.00000000E+00  5.00000000E-01  1.66666667E-01
                       1.66666667E-01  5.00000000E-01  1.66666667E-01
                       3.33333333E-01  5.00000000E-01  1.66666667E-01
                       5.00000000E-01  5.00000000E-01  1.66666667E-01
                      -3.33333333E-01  5.00000000E-01  1.66666667E-01
                      -1.66666667E-01  5.00000000E-01  1.66666667E-01
                       0.00000000E+00 -3.33333333E-01  1.66666667E-01
                       1.66666667E-01 -3.33333333E-01  1.66666667E-01
                       3.33333333E-01 -3.33333333E-01  1.66666667E-01
                       5.00000000E-01 -3.33333333E-01  1.66666667E-01
                      -3.33333333E-01 -3.33333333E-01  1.66666667E-01
                      -1.66666667E-01 -3.33333333E-01  1.66666667E-01
                       outvar_i_n : Printing only first  50 k-points.
           kptopt           2
         kptrlatt        6    0    0      0    6    0      0    0    6
          kptrlen      5.75486009E+01
P           mkmem           4
            natom          12
            nband          48
           ndtset           2
            ngfft          45      45      45
             nkpt         112
            nstep         100
             nsym           2
           ntypat           2
              occ      2.000000  2.000000  2.000000  2.000000  2.000000  2.000000
                       2.000000  2.000000  2.000000  2.000000  2.000000  2.000000
                       2.000000  2.000000  2.000000  2.000000  2.000000  2.000000
                       2.000000  2.000000  2.000000  2.000000  2.000000  2.000000
                       2.000000  2.000000  2.000000  2.000000  2.000000  2.000000
                       2.000000  2.000000  2.000000  2.000000  2.000000  2.000000
                       2.000000  2.000000  2.000000  2.000000  2.000000  2.000000
                       2.000000  2.000000  2.000000  2.000000  2.000000  2.000000
        pawecutdg      2.50000000E+01 Hartree
         pawxcdev           0
            rfdir1          1       1       1
            rfdir2          0       0       0
          spgroup           3
           strten1    -1.9677027858E-04 -2.0366629295E-04 -4.9345169270E-04
                       0.0000000000E+00  5.4800790789E-09  0.0000000000E+00
           strten2    -1.9677361849E-04 -2.0366979338E-04 -4.9345449998E-04
                       0.0000000000E+00  5.5165970054E-09  0.0000000000E+00
        symmorphi           0
           symrel      1  0  0   0  1  0   0  0  1      -1  0  0   0  1  0   0  0 -1
           toldfe      1.00000000E-10 Hartree
           tolmxf      1.00000000E-05
           tsmear      4.00000000E-02 Hartree
            typat      1  1  1  1  2  2  2  2  2  2  2  2
              wtk        0.00463    0.00926    0.00926    0.00463    0.00926    0.00926
                         0.00926    0.00926    0.00926    0.00926    0.00926    0.00926
                         0.00926    0.00926    0.00926    0.00926    0.00463    0.00926
                         0.00926    0.00463    0.00926    0.00926    0.00926    0.00926
                         0.00926    0.00926    0.00926    0.00926    0.00926    0.00926
                         0.00926    0.00926    0.00926    0.00926    0.00926    0.00926
                         0.00926    0.00926    0.00926    0.00926    0.00926    0.00926
                         0.00926    0.00926    0.00926    0.00926    0.00926    0.00926
                         0.00926    0.00926
                       outvars : Printing only first  50 k-points.
           xangst      0.0000000000E+00  1.0048873456E-01  0.0000000000E+00
                       2.5377840000E+00  2.6383038985E+00  0.0000000000E+00
                       0.0000000000E+00  2.6382753739E+00  2.5377840000E+00
                       2.5377840000E+00  1.0050786945E-01  2.5377840000E+00
                       1.3450853102E+00  1.2674297796E+00  1.0118269667E+00
                       1.1926274796E+00  1.2672228995E+00  3.5496216761E+00
                       3.8828604279E+00  3.8050626292E+00  1.0118501113E+00
                       3.7305497381E+00  3.8052429134E+00  3.5496490335E+00
                       1.3450182619E+00  3.8052429134E+00  1.5259189665E+00
                       1.1927075721E+00  3.8050626292E+00  4.0637178887E+00
                       3.8829405204E+00  1.2672228995E+00  1.5259463239E+00
                       3.7304826898E+00  1.2674297796E+00  4.0637410333E+00
            xcart      0.0000000000E+00  1.8989618776E-01  0.0000000000E+00
                       4.7957167444E+00  4.9856718236E+00  0.0000000000E+00
                       0.0000000000E+00  4.9856179197E+00  4.7957167444E+00
                       4.7957167444E+00  1.8993234746E-01  4.7957167444E+00
                       2.5418428616E+00  2.3950951761E+00  1.9120758609E+00
                       2.2537393150E+00  2.3947042293E+00  6.7078128433E+00
                       7.3375428210E+00  7.1905262877E+00  1.9121195979E+00
                       7.0497173300E+00  7.1908669754E+00  6.7078645411E+00
                       2.5417161588E+00  7.1908669754E+00  2.8835689477E+00
                       2.2538906678E+00  7.1905262877E+00  7.6793138910E+00
                       7.3376941739E+00  2.3947042293E+00  2.8836206456E+00
                       7.0495906272E+00  2.3950951761E+00  7.6793576279E+00
             xred      0.0000000000E+00  1.9798520000E-02  0.0000000000E+00
                       5.0000000000E-01  5.1980466000E-01  0.0000000000E+00
                       0.0000000000E+00  5.1979904000E-01  5.0000000000E-01
                       5.0000000000E-01  1.9802290000E-02  5.0000000000E-01
                       2.6501178000E-01  2.4971191000E-01  1.9935246000E-01
                       2.3497419000E-01  2.4967115000E-01  6.9935457000E-01
                       7.6501003000E-01  7.4968213000E-01  1.9935702000E-01
                       7.3500143000E-01  7.4971765000E-01  6.9935996000E-01
                       2.6499857000E-01  7.4971765000E-01  3.0064004000E-01
                       2.3498997000E-01  7.4968213000E-01  8.0064298000E-01
                       7.6502581000E-01  2.4967115000E-01  3.0064543000E-01
                       7.3498822000E-01  2.4971191000E-01  8.0064754000E-01
            znucl       72.00000    8.00000

- Timing analysis has been suppressed with timopt=0

 Suggested references for the acknowledgment of ABINIT usage.

 Calculation completed.
.Delivered   0 WARNINGs and   2 COMMENTs to log file.