.Version 9.4.2 of ABINIT

 ABINIT is a project of the Universite Catholique de Louvain,
 Corning Inc. and other collaborators, see ~abinit/doc/developers/contributors.txt .
 acknowledgments of the ABINIT effort.

.Starting date : Tue 22 Jun 2021.
- ( at 08h40 )

- input  file    -> /p/work1/jiahaoz/HfO4/CUBIC_ITERATE/iterone/P0.10/itenoe10
- output file    -> /p/work1/jiahaoz/HfO4/CUBIC_ITERATE/iterone/P0.10/itenoe10.abo
- root for input  files -> i
- root for output files -> o

 DATASET    1 : space group P2 (#  3); Bravais mP (primitive monocl.)
     intxc =       0    ionmov =       0      iscf =       7    lmnmax =       8
     lnmax =       8     mgfft =      45  mpssoang =       4    mqgrid =    3001
     natom =      12  nloc_mem =       1    nspden =       1   nspinor =       1
    nsppol =       1      nsym =       2    n1xccc =    2501    ntypat =       2
    occopt =       1   xclevel =       2
-    mband =          48        mffmem =           1         mkmem =           4
       mpw =        5294          nfft =       91125          nkpt =         112
  Rough estimation (10% accuracy) of disk space for files :

 DATASET    2 : space group P2 (#  3); Bravais mP (primitive monocl.)
     intxc =       0    ionmov =       0      iscf =       7    lmnmax =       8
     lnmax =       8     mgfft =      45  mpssoang =       4    mqgrid =    3001
     natom =      12  nloc_mem =       1    nspden =       1   nspinor =       1
    nsppol =       1      nsym =       2    n1xccc =    2501    ntypat =       2
    occopt =       1   xclevel =       2
-    mband =          48        mffmem =           1         mkmem =           4
       mpw =        5294          nfft =       91125          nkpt =         112
  Rough estimation (10% accuracy) of disk space for files :

------------- Echo of variables that govern the present computation ------------
-
- outvars: echo of selected default values
-   iomode0 =  0 , fftalg0 =512 , wfoptalg0 =  0
-
- outvars: echo of global parameters not present in the input file
-  max_nthreads =    0
-
 -outvars: echo values of preprocessed input variables --------
            acell      9.5914334888E+00  9.5914334888E+00  9.5914334888E+00 Bohr
              amu      1.78490000E+02  1.59994000E+01
         berryopt1         -1
         berryopt2          4
          chkprim           0
             ecut      2.50000000E+01 Hartree
           ecutsm      5.00000000E-01 Hartree
-          fftalg         512
           getwfk1          0
           getwfk2          1
           istwfk        1    0    0    1    0    0    0    0    0    0
                         0    0    0    0    0    0    1    0    0    1
                         0    0    0    0    0    0    0    0    0    0
                         0    0    0    0    0    0    0    0    0    0
                         0    0    0    0    0    0    0    0    0    0
                       outvar_i_n : Printing only first  50 k-points.
              ixc          11
           jdtset        1    2
              kpt      0.00000000E+00  0.00000000E+00  0.00000000E+00
                       1.66666667E-01  0.00000000E+00  0.00000000E+00
                       3.33333333E-01  0.00000000E+00  0.00000000E+00
                       5.00000000E-01  0.00000000E+00  0.00000000E+00
                       0.00000000E+00  1.66666667E-01  0.00000000E+00
                       1.66666667E-01  1.66666667E-01  0.00000000E+00
                       3.33333333E-01  1.66666667E-01  0.00000000E+00
                       5.00000000E-01  1.66666667E-01  0.00000000E+00
                      -3.33333333E-01  1.66666667E-01  0.00000000E+00
                      -1.66666667E-01  1.66666667E-01  0.00000000E+00
                       0.00000000E+00  3.33333333E-01  0.00000000E+00
                       1.66666667E-01  3.33333333E-01  0.00000000E+00
                       3.33333333E-01  3.33333333E-01  0.00000000E+00
                       5.00000000E-01  3.33333333E-01  0.00000000E+00
                      -3.33333333E-01  3.33333333E-01  0.00000000E+00
                      -1.66666667E-01  3.33333333E-01  0.00000000E+00
                       0.00000000E+00  5.00000000E-01  0.00000000E+00
                       1.66666667E-01  5.00000000E-01  0.00000000E+00
                       3.33333333E-01  5.00000000E-01  0.00000000E+00
                       5.00000000E-01  5.00000000E-01  0.00000000E+00
                       0.00000000E+00  0.00000000E+00  1.66666667E-01
                       1.66666667E-01  0.00000000E+00  1.66666667E-01
                       3.33333333E-01  0.00000000E+00  1.66666667E-01
                       5.00000000E-01  0.00000000E+00  1.66666667E-01
                      -3.33333333E-01  0.00000000E+00  1.66666667E-01
                      -1.66666667E-01  0.00000000E+00  1.66666667E-01
                       0.00000000E+00  1.66666667E-01  1.66666667E-01
                       1.66666667E-01  1.66666667E-01  1.66666667E-01
                       3.33333333E-01  1.66666667E-01  1.66666667E-01
                       5.00000000E-01  1.66666667E-01  1.66666667E-01
                      -3.33333333E-01  1.66666667E-01  1.66666667E-01
                      -1.66666667E-01  1.66666667E-01  1.66666667E-01
                       0.00000000E+00  3.33333333E-01  1.66666667E-01
                       1.66666667E-01  3.33333333E-01  1.66666667E-01
                       3.33333333E-01  3.33333333E-01  1.66666667E-01
                       5.00000000E-01  3.33333333E-01  1.66666667E-01
                      -3.33333333E-01  3.33333333E-01  1.66666667E-01
                      -1.66666667E-01  3.33333333E-01  1.66666667E-01
                       0.00000000E+00  5.00000000E-01  1.66666667E-01
                       1.66666667E-01  5.00000000E-01  1.66666667E-01
                       3.33333333E-01  5.00000000E-01  1.66666667E-01
                       5.00000000E-01  5.00000000E-01  1.66666667E-01
                      -3.33333333E-01  5.00000000E-01  1.66666667E-01
                      -1.66666667E-01  5.00000000E-01  1.66666667E-01
                       0.00000000E+00 -3.33333333E-01  1.66666667E-01
                       1.66666667E-01 -3.33333333E-01  1.66666667E-01
                       3.33333333E-01 -3.33333333E-01  1.66666667E-01
                       5.00000000E-01 -3.33333333E-01  1.66666667E-01
                      -3.33333333E-01 -3.33333333E-01  1.66666667E-01
                      -1.66666667E-01 -3.33333333E-01  1.66666667E-01
                       outvar_i_n : Printing only first  50 k-points.
           kptopt           2
         kptrlatt        6    0    0      0    6    0      0    0    6
          kptrlen      5.75486009E+01
P           mkmem           4
            natom          12
            nband          48
           ndtset           2
            ngfft          45      45      45
             nkpt         112
            nstep         100
             nsym           2
           ntypat           2
              occ      2.000000  2.000000  2.000000  2.000000  2.000000  2.000000
                       2.000000  2.000000  2.000000  2.000000  2.000000  2.000000
                       2.000000  2.000000  2.000000  2.000000  2.000000  2.000000
                       2.000000  2.000000  2.000000  2.000000  2.000000  2.000000
                       2.000000  2.000000  2.000000  2.000000  2.000000  2.000000
                       2.000000  2.000000  2.000000  2.000000  2.000000  2.000000
                       2.000000  2.000000  2.000000  2.000000  2.000000  2.000000
                       2.000000  2.000000  2.000000  2.000000  2.000000  2.000000
        pawecutdg      2.50000000E+01 Hartree
         pawxcdev           0
            rfdir1          1       1       1
            rfdir2          0       0       0
          spgroup           3
        symmorphi           0
           symrel      1  0  0   0  1  0   0  0  1      -1  0  0   0  1  0   0  0 -1
           toldfe      1.00000000E-10 Hartree
           tolmxf      1.00000000E-05
           tsmear      4.00000000E-02 Hartree
            typat      1  1  1  1  2  2  2  2  2  2  2  2
              wtk        0.00463    0.00926    0.00926    0.00463    0.00926    0.00926
                         0.00926    0.00926    0.00926    0.00926    0.00926    0.00926
                         0.00926    0.00926    0.00926    0.00926    0.00463    0.00926
                         0.00926    0.00463    0.00926    0.00926    0.00926    0.00926
                         0.00926    0.00926    0.00926    0.00926    0.00926    0.00926
                         0.00926    0.00926    0.00926    0.00926    0.00926    0.00926
                         0.00926    0.00926    0.00926    0.00926    0.00926    0.00926
                         0.00926    0.00926    0.00926    0.00926    0.00926    0.00926
                         0.00926    0.00926
                       outvars : Printing only first  50 k-points.
           xangst      0.0000000000E+00  4.1885262073E-02  0.0000000000E+00
                       2.5377840000E+00  2.5796608874E+00  0.0000000000E+00
                       0.0000000000E+00  2.5797044865E+00  2.5377840000E+00
                       2.5377840000E+00  4.1891251244E-02  2.5377840000E+00
                       1.3007327130E+00  1.2683262264E+00  1.0212127070E+00
                       1.2370556012E+00  1.2682910020E+00  3.5590020364E+00
                       3.8384622014E+00  3.8060777936E+00  1.0212452922E+00
                       3.7749040102E+00  3.8061601700E+00  3.5590415751E+00
                       1.3006639898E+00  3.8061601700E+00  1.5165264249E+00
                       1.2371057986E+00  3.8060777936E+00  4.0543227078E+00
                       3.8385123988E+00  1.2682910020E+00  1.5165659636E+00
                       3.7748352870E+00  1.2683262264E+00  4.0543552930E+00
            xcart      0.0000000000E+00  7.9151674323E-02  0.0000000000E+00
                       4.7957167444E+00  4.8748525929E+00  0.0000000000E+00
                       0.0000000000E+00  4.8749349833E+00  4.7957167444E+00
                       4.7957167444E+00  7.9162992214E-02  4.7957167444E+00
                       2.4580285997E+00  2.3967892151E+00  1.9298123397E+00
                       2.3376962975E+00  2.3967226506E+00  6.7255391552E+00
                       7.2536423321E+00  7.1924446703E+00  1.9298739167E+00
                       7.1335347572E+00  7.1926003392E+00  6.7256138724E+00
                       2.4578987316E+00  7.1926003392E+00  2.8658196164E+00
                       2.3377911568E+00  7.1924446703E+00  7.6615595721E+00
                       7.2537371914E+00  2.3967226506E+00  2.8658943337E+00
                       7.1334048892E+00  2.3967892151E+00  7.6616211491E+00
             xred      0.0000000000E+00  8.2523300000E-03  0.0000000000E+00
                       5.0000000000E-01  5.0825068000E-01  0.0000000000E+00
                       0.0000000000E+00  5.0825927000E-01  5.0000000000E-01
                       5.0000000000E-01  8.2535100000E-03  5.0000000000E-01
[...]
    4      0.00000000000000    -0.00122720502069     0.00000000000000
    5      0.00013789555358     0.00061365844894    -0.00001319356943
    6     -0.00013791085163     0.00061363825344    -0.00001320825544
    7      0.00013790854019     0.00061360846725    -0.00001318306689
    8     -0.00013785646810     0.00061362275659    -0.00001320048503
    9      0.00013785646810     0.00061362275659     0.00001320048503
   10     -0.00013790854019     0.00061360846725     0.00001318306689
   11      0.00013791085163     0.00061363825344     0.00001320825544
   12     -0.00013789555358     0.00061365844894     0.00001319356943
 frms,max,avg= 5.0526587E-04 1.2273101E-03   0.000E+00  2.841E-06  0.000E+00 h/b

 cartesian forces (eV/Angstrom) at end:
    1      0.00000000000000    -0.06310772879538     0.00000000000000
    2      0.00000000000000    -0.06310982061516     0.00000000000000
    3      0.00000000000000    -0.06311081672368     0.00000000000000
    4      0.00000000000000    -0.06310541412358     0.00000000000000
    5      0.00709087386995     0.03155558353973    -0.00067844056091
    6     -0.00709166052716     0.03155454504546    -0.00067919574597
    7      0.00709154166841     0.03155301337808    -0.00067790049845
    8     -0.00708886401428     0.03155374816563    -0.00067879617534
    9      0.00708886401428     0.03155374816563     0.00067879617534
   10     -0.00709154166841     0.03155301337808     0.00067790049845
   11      0.00709166052716     0.03155454504546     0.00067919574597
   12     -0.00709087386995     0.03155558353973     0.00067844056091
 frms,max,avg= 2.5981814E-02 6.3110817E-02   0.000E+00  1.461E-04  0.000E+00 e/A
 length scales=  9.591433488838  9.591433488838  9.591433488838 bohr
              =  5.075568000000  5.075568000000  5.075568000000 angstroms
 prteigrs : about to open file o_DS2_EIG
 Fermi (or HOMO) energy (hartree) =   0.27702   Average Vxc (hartree)=  -0.44600
 Eigenvalues (hartree) for nkpt= 112  k points:
 kpt#   1, nband= 48, wtk=  0.00463, kpt=  0.0000  0.0000  0.0000 (reduced coord)
  -1.94356   -1.94289   -1.94287   -1.94286   -0.80518   -0.80516   -0.80483   -0.79335
  -0.79305   -0.79273   -0.79246   -0.79147   -0.79141   -0.78849   -0.78691   -0.78690
  -0.39509   -0.33820   -0.32915   -0.32889   -0.31890   -0.31597   -0.31575   -0.29720
   0.06037    0.06043    0.07180    0.09590    0.10272    0.10292    0.16296    0.16415
   0.16650    0.16767    0.17257    0.17259    0.22244    0.22380    0.22723    0.22862
   0.24819    0.25079    0.25478    0.25527    0.25762    0.26614    0.26740    0.27518
 prteigrs : prtvol=0 or 1, do not print more k-points.

--- !EnergyTerms
iteration_state     : {dtset: 2, }
comment             : Components of total free energy in Hartree
kinetic             :  1.46202962819920E+02
hartree             :  5.59381497429400E+01
xc                  : -9.09064827933757E+01
Ewald energy        : -2.70140830299184E+02
psp_core            :  1.49595106529080E+01
local_psp           : -2.05573288635199E+02
non_local_psp       : -9.11412865105711E+00
electric            :  0.00000000000000E+00
kohn_sham           : -3.58634107163048E+02
total_energy        : -3.58634107163048E+02
total_energy_eV     : -9.75893035530208E+03
band_energy         : -3.10999385234732E+01
...

Constant unreduced E calculation  - final values:
 (a. u.)
       E:   0.000000000E+00   0.000000000E+00   0.000000000E+00
       P:   3.779892796E-14   1.680121410E-03   1.190425056E-13

    ebar:   0.000000000E+00   0.000000000E+00   0.000000000E+00
    pbar:   4.555886188E-12   2.025042068E-01   1.434813462E-11

       e:   0.000000000E+00   0.000000000E+00   0.000000000E+00
       p:   3.477334920E-12   1.545637711E-01   1.095138629E-11

 (S.I.), that is V/m for E, and C/m^2 for P
-      E:   0.000000000E+00   0.000000000E+00   0.000000000E+00
       P:   2.162656647E-12   9.612774574E-02   6.810988562E-12

 Please check: COMMENT -
  As a rough estimate,
  to be below the critical field, the bandgap of your system
  should be larger than    0.00 eV.

 Cartesian components of stress tensor (hartree/bohr^3)
  sigma(1 1)= -1.76316843E-04  sigma(3 2)=  0.00000000E+00
  sigma(2 2)= -1.78246399E-04  sigma(3 1)= -2.56599987E-09
  sigma(3 3)= -4.78591076E-04  sigma(2 1)=  0.00000000E+00

-Cartesian components of stress tensor (GPa)         [Pressure=  8.1707E+00 GPa]
- sigma(1 1)= -5.18741974E+00  sigma(3 2)=  0.00000000E+00
- sigma(2 2)= -5.24418922E+00  sigma(3 1)= -7.54943099E-05
- sigma(3 3)= -1.40806332E+01  sigma(2 1)=  0.00000000E+00

== END DATASET(S) ==============================================================

 -outvars: echo values of variables after computation  --------
            acell      9.5914334888E+00  9.5914334888E+00  9.5914334888E+00 Bohr
              amu      1.78490000E+02  1.59994000E+01
         berryopt1         -1
         berryopt2          4
          chkprim           0
             ecut      2.50000000E+01 Hartree
           ecutsm      5.00000000E-01 Hartree
           etotal1    -3.5863410716E+02
           etotal2    -3.5863410716E+02
            fcart1     0.0000000000E+00 -1.2274250093E-03 -7.0586078938E-22
                       0.0000000000E+00 -1.2271742092E-03 -7.0586078938E-22
                       0.0000000000E+00 -1.2271975752E-03 -7.0586078938E-22
                       0.0000000000E+00 -1.2273267550E-03 -7.0586078938E-22
                       1.3794442240E-04  6.1366014775E-04 -1.3131874110E-05
                      -1.3786201921E-04  6.1364660233E-04 -1.3360086777E-05
                       1.3791632342E-04  6.1363588588E-04 -1.3160968023E-05
                      -1.3783836110E-04  6.1361913833E-04 -1.3379768921E-05
                       1.3783836110E-04  6.1361913833E-04  1.3379768921E-05
                      -1.3791632342E-04  6.1363588588E-04  1.3160968023E-05
                       1.3786201921E-04  6.1364660233E-04  1.3360086777E-05
                      -1.3794442240E-04  6.1366014775E-04  1.3131874110E-05
            fcart2     0.0000000000E+00 -1.2272500339E-03  0.0000000000E+00
                       0.0000000000E+00 -1.2272907133E-03  0.0000000000E+00
                       0.0000000000E+00 -1.2273100845E-03  0.0000000000E+00
                       0.0000000000E+00 -1.2272050207E-03  0.0000000000E+00
                       1.3789555358E-04  6.1365844894E-04 -1.3193569429E-05
                      -1.3791085163E-04  6.1363825344E-04 -1.3208255441E-05
                       1.3790854019E-04  6.1360846725E-04 -1.3183066885E-05
                      -1.3785646810E-04  6.1362275659E-04 -1.3200485029E-05
                       1.3785646810E-04  6.1362275659E-04  1.3200485029E-05
                      -1.3790854019E-04  6.1360846725E-04  1.3183066885E-05
                       1.3791085163E-04  6.1363825344E-04  1.3208255441E-05
                      -1.3789555358E-04  6.1365844894E-04  1.3193569429E-05
-          fftalg         512
           getwfk1          0
           getwfk2          1
           istwfk        1    0    0    1    0    0    0    0    0    0
                         0    0    0    0    0    0    1    0    0    1
                         0    0    0    0    0    0    0    0    0    0
                         0    0    0    0    0    0    0    0    0    0
                         0    0    0    0    0    0    0    0    0    0
                       outvar_i_n : Printing only first  50 k-points.
              ixc          11
           jdtset        1    2
              kpt      0.00000000E+00  0.00000000E+00  0.00000000E+00
                       1.66666667E-01  0.00000000E+00  0.00000000E+00
                       3.33333333E-01  0.00000000E+00  0.00000000E+00
                       5.00000000E-01  0.00000000E+00  0.00000000E+00
                       0.00000000E+00  1.66666667E-01  0.00000000E+00
                       1.66666667E-01  1.66666667E-01  0.00000000E+00
                       3.33333333E-01  1.66666667E-01  0.00000000E+00
                       5.00000000E-01  1.66666667E-01  0.00000000E+00
                      -3.33333333E-01  1.66666667E-01  0.00000000E+00
                      -1.66666667E-01  1.66666667E-01  0.00000000E+00
                       0.00000000E+00  3.33333333E-01  0.00000000E+00
                       1.66666667E-01  3.33333333E-01  0.00000000E+00
                       3.33333333E-01  3.33333333E-01  0.00000000E+00
                       5.00000000E-01  3.33333333E-01  0.00000000E+00
                      -3.33333333E-01  3.33333333E-01  0.00000000E+00
                      -1.66666667E-01  3.33333333E-01  0.00000000E+00
                       0.00000000E+00  5.00000000E-01  0.00000000E+00
                       1.66666667E-01  5.00000000E-01  0.00000000E+00
                       3.33333333E-01  5.00000000E-01  0.00000000E+00
                       5.00000000E-01  5.00000000E-01  0.00000000E+00
                       0.00000000E+00  0.00000000E+00  1.66666667E-01
                       1.66666667E-01  0.00000000E+00  1.66666667E-01
                       3.33333333E-01  0.00000000E+00  1.66666667E-01
                       5.00000000E-01  0.00000000E+00  1.66666667E-01
                      -3.33333333E-01  0.00000000E+00  1.66666667E-01
                      -1.66666667E-01  0.00000000E+00  1.66666667E-01
                       0.00000000E+00  1.66666667E-01  1.66666667E-01
                       1.66666667E-01  1.66666667E-01  1.66666667E-01
                       3.33333333E-01  1.66666667E-01  1.66666667E-01
                       5.00000000E-01  1.66666667E-01  1.66666667E-01
                      -3.33333333E-01  1.66666667E-01  1.66666667E-01
                      -1.66666667E-01  1.66666667E-01  1.66666667E-01
                       0.00000000E+00  3.33333333E-01  1.66666667E-01
                       1.66666667E-01  3.33333333E-01  1.66666667E-01
                       3.33333333E-01  3.33333333E-01  1.66666667E-01
                       5.00000000E-01  3.33333333E-01  1.66666667E-01
                      -3.33333333E-01  3.33333333E-01  1.66666667E-01
                      -1.66666667E-01  3.33333333E-01  1.66666667E-01
                       0.00000000E+00  5.00000000E-01  1.66666667E-01
                       1.66666667E-01  5.00000000E-01  1.66666667E-01
                       3.33333333E-01  5.00000000E-01  1.66666667E-01
                       5.00000000E-01  5.00000000E-01  1.66666667E-01
                      -3.33333333E-01  5.00000000E-01  1.66666667E-01
                      -1.66666667E-01  5.00000000E-01  1.66666667E-01
                       0.00000000E+00 -3.33333333E-01  1.66666667E-01
                       1.66666667E-01 -3.33333333E-01  1.66666667E-01
                       3.33333333E-01 -3.33333333E-01  1.66666667E-01
                       5.00000000E-01 -3.33333333E-01  1.66666667E-01
                      -3.33333333E-01 -3.33333333E-01  1.66666667E-01
                      -1.66666667E-01 -3.33333333E-01  1.66666667E-01
                       outvar_i_n : Printing only first  50 k-points.
           kptopt           2
         kptrlatt        6    0    0      0    6    0      0    0    6
          kptrlen      5.75486009E+01
P           mkmem           4
            natom          12
            nband          48
           ndtset           2
            ngfft          45      45      45
             nkpt         112
            nstep         100
             nsym           2
           ntypat           2
              occ      2.000000  2.000000  2.000000  2.000000  2.000000  2.000000
                       2.000000  2.000000  2.000000  2.000000  2.000000  2.000000
                       2.000000  2.000000  2.000000  2.000000  2.000000  2.000000
                       2.000000  2.000000  2.000000  2.000000  2.000000  2.000000
                       2.000000  2.000000  2.000000  2.000000  2.000000  2.000000
                       2.000000  2.000000  2.000000  2.000000  2.000000  2.000000
                       2.000000  2.000000  2.000000  2.000000  2.000000  2.000000
                       2.000000  2.000000  2.000000  2.000000  2.000000  2.000000
        pawecutdg      2.50000000E+01 Hartree
         pawxcdev           0
            rfdir1          1       1       1
            rfdir2          0       0       0
          spgroup           3
           strten1    -1.7631435320E-04 -1.7824389761E-04 -4.7858901450E-04
                       0.0000000000E+00 -2.5935359630E-09  0.0000000000E+00
           strten2    -1.7631684282E-04 -1.7824639854E-04 -4.7859107583E-04
                       0.0000000000E+00 -2.5659998711E-09  0.0000000000E+00
        symmorphi           0
           symrel      1  0  0   0  1  0   0  0  1      -1  0  0   0  1  0   0  0 -1
           toldfe      1.00000000E-10 Hartree
           tolmxf      1.00000000E-05
           tsmear      4.00000000E-02 Hartree
            typat      1  1  1  1  2  2  2  2  2  2  2  2
              wtk        0.00463    0.00926    0.00926    0.00463    0.00926    0.00926
                         0.00926    0.00926    0.00926    0.00926    0.00926    0.00926
                         0.00926    0.00926    0.00926    0.00926    0.00463    0.00926
                         0.00926    0.00463    0.00926    0.00926    0.00926    0.00926
                         0.00926    0.00926    0.00926    0.00926    0.00926    0.00926
                         0.00926    0.00926    0.00926    0.00926    0.00926    0.00926
                         0.00926    0.00926    0.00926    0.00926    0.00926    0.00926
                         0.00926    0.00926    0.00926    0.00926    0.00926    0.00926
                         0.00926    0.00926
                       outvars : Printing only first  50 k-points.
           xangst      0.0000000000E+00  4.1885262073E-02  0.0000000000E+00
                       2.5377840000E+00  2.5796608874E+00  0.0000000000E+00
                       0.0000000000E+00  2.5797044865E+00  2.5377840000E+00
                       2.5377840000E+00  4.1891251244E-02  2.5377840000E+00
                       1.3007327130E+00  1.2683262264E+00  1.0212127070E+00
                       1.2370556012E+00  1.2682910020E+00  3.5590020364E+00
                       3.8384622014E+00  3.8060777936E+00  1.0212452922E+00
                       3.7749040102E+00  3.8061601700E+00  3.5590415751E+00
                       1.3006639898E+00  3.8061601700E+00  1.5165264249E+00
                       1.2371057986E+00  3.8060777936E+00  4.0543227078E+00
                       3.8385123988E+00  1.2682910020E+00  1.5165659636E+00
                       3.7748352870E+00  1.2683262264E+00  4.0543552930E+00
            xcart      0.0000000000E+00  7.9151674323E-02  0.0000000000E+00
                       4.7957167444E+00  4.8748525929E+00  0.0000000000E+00
                       0.0000000000E+00  4.8749349833E+00  4.7957167444E+00
                       4.7957167444E+00  7.9162992214E-02  4.7957167444E+00
                       2.4580285997E+00  2.3967892151E+00  1.9298123397E+00
                       2.3376962975E+00  2.3967226506E+00  6.7255391552E+00
                       7.2536423321E+00  7.1924446703E+00  1.9298739167E+00
                       7.1335347572E+00  7.1926003392E+00  6.7256138724E+00
                       2.4578987316E+00  7.1926003392E+00  2.8658196164E+00
                       2.3377911568E+00  7.1924446703E+00  7.6615595721E+00
                       7.2537371914E+00  2.3967226506E+00  2.8658943337E+00
                       7.1334048892E+00  2.3967892151E+00  7.6616211491E+00
             xred      0.0000000000E+00  8.2523300000E-03  0.0000000000E+00
                       5.0000000000E-01  5.0825068000E-01  0.0000000000E+00
                       0.0000000000E+00  5.0825927000E-01  5.0000000000E-01
                       5.0000000000E-01  8.2535100000E-03  5.0000000000E-01
                       2.5627333000E-01  2.4988853000E-01  2.0120166000E-01
                       2.4372752000E-01  2.4988159000E-01  7.0120271000E-01
                       7.5626259000E-01  7.4988214000E-01  2.0120808000E-01
                       7.4374021000E-01  7.4989837000E-01  7.0121050000E-01
                       2.5625979000E-01  7.4989837000E-01  2.9878950000E-01
                       2.4373741000E-01  7.4988214000E-01  7.9879192000E-01
                       7.5627248000E-01  2.4988159000E-01  2.9879729000E-01
                       7.4372667000E-01  2.4988853000E-01  7.9879834000E-01
            znucl       72.00000    8.00000

- Timing analysis has been suppressed with timopt=0

 Suggested references for the acknowledgment of ABINIT usage.

 Calculation completed.
.Delivered   0 WARNINGs and   2 COMMENTs to log file.