.Version 9.4.2 of ABINIT

 ABINIT is a project of the Universite Catholique de Louvain,
 Corning Inc. and other collaborators, see ~abinit/doc/developers/contributors.txt .
 acknowledgments of the ABINIT effort.

.Starting date : Tue 22 Jun 2021.
- ( at 08h22 )

- input  file    -> /p/work1/jiahaoz/HfO4/CUBIC_ITERATE/iterone/P0.18/itenoe10
- output file    -> /p/work1/jiahaoz/HfO4/CUBIC_ITERATE/iterone/P0.18/itenoe10.abo
- root for input  files -> i
- root for output files -> o

 DATASET    1 : the unit cell is not primitive
     intxc =       0    ionmov =       0      iscf =       7    lmnmax =       8
     lnmax =       8     mgfft =      45  mpssoang =       4    mqgrid =    3001
     natom =      12  nloc_mem =       1    nspden =       1   nspinor =       1
    nsppol =       1      nsym =       2    n1xccc =    2501    ntypat =       2
    occopt =       1   xclevel =       2
-    mband =          48        mffmem =           1         mkmem =           4
       mpw =        5294          nfft =       91125          nkpt =         112
  Rough estimation (10% accuracy) of disk space for files :

 DATASET    2 : the unit cell is not primitive
     intxc =       0    ionmov =       0      iscf =       7    lmnmax =       8
     lnmax =       8     mgfft =      45  mpssoang =       4    mqgrid =    3001
     natom =      12  nloc_mem =       1    nspden =       1   nspinor =       1
    nsppol =       1      nsym =       2    n1xccc =    2501    ntypat =       2
    occopt =       1   xclevel =       2
-    mband =          48        mffmem =           1         mkmem =           4
       mpw =        5294          nfft =       91125          nkpt =         112
  Rough estimation (10% accuracy) of disk space for files :

------------- Echo of variables that govern the present computation ------------
-
- outvars: echo of selected default values
-   iomode0 =  0 , fftalg0 =512 , wfoptalg0 =  0
-
- outvars: echo of global parameters not present in the input file
-  max_nthreads =    0
-
 -outvars: echo values of preprocessed input variables --------
            acell      9.5914334888E+00  9.5914334888E+00  9.5914334888E+00 Bohr
              amu      1.78490000E+02  1.59994000E+01
         berryopt1         -1
         berryopt2          4
          chkprim           0
             ecut      2.50000000E+01 Hartree
           ecutsm      5.00000000E-01 Hartree
-          fftalg         512
           getwfk1          0
           getwfk2          1
           istwfk        1    0    0    1    0    0    0    0    0    0
                         0    0    0    0    0    0    1    0    0    1
                         0    0    0    0    0    0    0    0    0    0
                         0    0    0    0    0    0    0    0    0    0
                         0    0    0    0    0    0    0    0    0    0
                       outvar_i_n : Printing only first  50 k-points.
              ixc          11
           jdtset        1    2
              kpt      0.00000000E+00  0.00000000E+00  0.00000000E+00
                       1.66666667E-01  0.00000000E+00  0.00000000E+00
                       3.33333333E-01  0.00000000E+00  0.00000000E+00
                       5.00000000E-01  0.00000000E+00  0.00000000E+00
                       0.00000000E+00  1.66666667E-01  0.00000000E+00
                       1.66666667E-01  1.66666667E-01  0.00000000E+00
                       3.33333333E-01  1.66666667E-01  0.00000000E+00
                       5.00000000E-01  1.66666667E-01  0.00000000E+00
                      -3.33333333E-01  1.66666667E-01  0.00000000E+00
                      -1.66666667E-01  1.66666667E-01  0.00000000E+00
                       0.00000000E+00  3.33333333E-01  0.00000000E+00
                       1.66666667E-01  3.33333333E-01  0.00000000E+00
                       3.33333333E-01  3.33333333E-01  0.00000000E+00
                       5.00000000E-01  3.33333333E-01  0.00000000E+00
                      -3.33333333E-01  3.33333333E-01  0.00000000E+00
                      -1.66666667E-01  3.33333333E-01  0.00000000E+00
                       0.00000000E+00  5.00000000E-01  0.00000000E+00
                       1.66666667E-01  5.00000000E-01  0.00000000E+00
                       3.33333333E-01  5.00000000E-01  0.00000000E+00
                       5.00000000E-01  5.00000000E-01  0.00000000E+00
                       0.00000000E+00  0.00000000E+00  1.66666667E-01
                       1.66666667E-01  0.00000000E+00  1.66666667E-01
                       3.33333333E-01  0.00000000E+00  1.66666667E-01
                       5.00000000E-01  0.00000000E+00  1.66666667E-01
                      -3.33333333E-01  0.00000000E+00  1.66666667E-01
                      -1.66666667E-01  0.00000000E+00  1.66666667E-01
                       0.00000000E+00  1.66666667E-01  1.66666667E-01
                       1.66666667E-01  1.66666667E-01  1.66666667E-01
                       3.33333333E-01  1.66666667E-01  1.66666667E-01
                       5.00000000E-01  1.66666667E-01  1.66666667E-01
                      -3.33333333E-01  1.66666667E-01  1.66666667E-01
                      -1.66666667E-01  1.66666667E-01  1.66666667E-01
                       0.00000000E+00  3.33333333E-01  1.66666667E-01
                       1.66666667E-01  3.33333333E-01  1.66666667E-01
                       3.33333333E-01  3.33333333E-01  1.66666667E-01
                       5.00000000E-01  3.33333333E-01  1.66666667E-01
                      -3.33333333E-01  3.33333333E-01  1.66666667E-01
                      -1.66666667E-01  3.33333333E-01  1.66666667E-01
                       0.00000000E+00  5.00000000E-01  1.66666667E-01
                       1.66666667E-01  5.00000000E-01  1.66666667E-01
                       3.33333333E-01  5.00000000E-01  1.66666667E-01
                       5.00000000E-01  5.00000000E-01  1.66666667E-01
                      -3.33333333E-01  5.00000000E-01  1.66666667E-01
                      -1.66666667E-01  5.00000000E-01  1.66666667E-01
                       0.00000000E+00 -3.33333333E-01  1.66666667E-01
                       1.66666667E-01 -3.33333333E-01  1.66666667E-01
                       3.33333333E-01 -3.33333333E-01  1.66666667E-01
                       5.00000000E-01 -3.33333333E-01  1.66666667E-01
                      -3.33333333E-01 -3.33333333E-01  1.66666667E-01
                      -1.66666667E-01 -3.33333333E-01  1.66666667E-01
                       outvar_i_n : Printing only first  50 k-points.
           kptopt           2
         kptrlatt        6    0    0      0    6    0      0    0    6
          kptrlen      5.75486009E+01
P           mkmem           4
            natom          12
            nband          48
           ndtset           2
            ngfft          45      45      45
             nkpt         112
            nstep         100
             nsym           2
           ntypat           2
              occ      2.000000  2.000000  2.000000  2.000000  2.000000  2.000000
                       2.000000  2.000000  2.000000  2.000000  2.000000  2.000000
                       2.000000  2.000000  2.000000  2.000000  2.000000  2.000000
                       2.000000  2.000000  2.000000  2.000000  2.000000  2.000000
                       2.000000  2.000000  2.000000  2.000000  2.000000  2.000000
                       2.000000  2.000000  2.000000  2.000000  2.000000  2.000000
                       2.000000  2.000000  2.000000  2.000000  2.000000  2.000000
                       2.000000  2.000000  2.000000  2.000000  2.000000  2.000000
        pawecutdg      2.50000000E+01 Hartree
         pawxcdev           0
            rfdir1          1       1       1
            rfdir2          0       0       0
        symmorphi           0
           symrel      1  0  0   0  1  0   0  0  1      -1  0  0   0  1  0   0  0 -1
           toldfe      1.00000000E-10 Hartree
           tolmxf      1.00000000E-05
           tsmear      4.00000000E-02 Hartree
            typat      1  1  1  1  2  2  2  2  2  2  2  2
              wtk        0.00463    0.00926    0.00926    0.00463    0.00926    0.00926
                         0.00926    0.00926    0.00926    0.00926    0.00926    0.00926
                         0.00926    0.00926    0.00926    0.00926    0.00463    0.00926
                         0.00926    0.00463    0.00926    0.00926    0.00926    0.00926
                         0.00926    0.00926    0.00926    0.00926    0.00926    0.00926
                         0.00926    0.00926    0.00926    0.00926    0.00926    0.00926
                         0.00926    0.00926    0.00926    0.00926    0.00926    0.00926
                         0.00926    0.00926    0.00926    0.00926    0.00926    0.00926
                         0.00926    0.00926
                       outvars : Printing only first  50 k-points.
           xangst      0.0000000000E+00  7.5482121603E-02  0.0000000000E+00
                       2.5377840000E+00  2.6132661216E+00  0.0000000000E+00
                       0.0000000000E+00  2.6132661216E+00  2.5377840000E+00
                       2.5377840000E+00  7.5482121603E-02  2.5377840000E+00
                       1.3261725384E+00  1.2678536784E+00  1.0166114255E+00
                       1.2116114616E+00  1.2678536784E+00  3.5543954255E+00
                       3.8639565384E+00  3.8056376784E+00  1.0166114255E+00
                       3.7493954616E+00  3.8056376784E+00  3.5543954255E+00
                       1.3261725384E+00  3.8056376784E+00  1.5211725745E+00
                       1.2116114616E+00  3.8056376784E+00  4.0589565745E+00
                       3.8639565384E+00  1.2678536784E+00  1.5211725745E+00
                       3.7493954616E+00  1.2678536784E+00  4.0589565745E+00
            xcart      0.0000000000E+00  1.4264053776E-01  0.0000000000E+00
                       4.7957167444E+00  4.9383572822E+00  0.0000000000E+00
                       0.0000000000E+00  4.9383572822E+00  4.7957167444E+00
                       4.7957167444E+00  1.4264053776E-01  4.7957167444E+00
                       2.5061029025E+00  2.3958962287E+00  1.9211171777E+00
                       2.2896138419E+00  2.3958962287E+00  6.7168339222E+00
                       7.3018196469E+00  7.1916129731E+00  1.9211171777E+00
                       7.0853305864E+00  7.1916129731E+00  6.7168339222E+00
                       2.5061029025E+00  7.1916129731E+00  2.8745995667E+00
                       2.2896138419E+00  7.1916129731E+00  7.6703163111E+00
                       7.3018196469E+00  2.3958962287E+00  2.8745995667E+00
                       7.0853305864E+00  2.3958962287E+00  7.6703163111E+00
             xred      0.0000000000E+00  1.4871660000E-02  0.0000000000E+00
                       5.0000000000E-01  5.1487166000E-01  0.0000000000E+00
                       0.0000000000E+00  5.1487166000E-01  5.0000000000E-01
                       5.0000000000E-01  1.4871660000E-02  5.0000000000E-01
                       2.6128554250E-01  2.4979542750E-01  2.0029510500E-01
[...]
    3      0.00000000000000    -0.00235212023476     0.00000000000000
    4      0.00000000000000    -0.00235102423638     0.00000000000000
    5      0.00026610485903     0.00117328661593    -0.00004837220139
    6     -0.00025862303266     0.00117019044151    -0.00004219761063
    7      0.00026155146714     0.00117869936385    -0.00004717444570
    8     -0.00026959303839     0.00118186381843    -0.00004177875750
    9      0.00026959303839     0.00118186381843     0.00004177875750
   10     -0.00026155146714     0.00117869936385     0.00004717444570
   11      0.00025862303266     0.00117019044151     0.00004219761063
   12     -0.00026610485903     0.00117328661593     0.00004837220139
 frms,max,avg= 9.6847413E-04 2.3532305E-03   0.000E+00 -3.027E-07  0.000E+00 h/b

 cartesian forces (eV/Angstrom) at end:
    1      0.00000000000000    -0.12092954745298     0.00000000000000
    2      0.00000000000000    -0.12100796928167     0.00000000000000
    3      0.00000000000000    -0.12095087534738     0.00000000000000
    4      0.00000000000000    -0.12089451684963     0.00000000000000
    5      0.01368366087666     0.06033281850684    -0.00248739839645
    6     -0.01329892992828     0.06017360683046    -0.00216988820029
    7      0.01344951607131     0.06061115317256    -0.00242580732803
    8     -0.01386303025640     0.06077387595597    -0.00214834990808
    9      0.01386303025640     0.06077387595597     0.00214834990808
   10     -0.01344951607131     0.06061115317256     0.00242580732803
   11      0.01329892992828     0.06017360683046     0.00216988820029
   12     -0.01368366087666     0.06033281850684     0.00248739839645
 frms,max,avg= 4.9800938E-02 1.2100797E-01   0.000E+00 -1.557E-05  0.000E+00 e/A
 length scales=  9.591433488838  9.591433488838  9.591433488838 bohr
              =  5.075568000000  5.075568000000  5.075568000000 angstroms
 prteigrs : about to open file o_DS2_EIG
 Fermi (or HOMO) energy (hartree) =   0.27677   Average Vxc (hartree)=  -0.44596
 Eigenvalues (hartree) for nkpt= 112  k points:
 kpt#   1, nband= 48, wtk=  0.00463, kpt=  0.0000  0.0000  0.0000 (reduced coord)
  -1.94326   -1.94260   -1.94257   -1.94257   -0.80509   -0.80502   -0.80472   -0.79356
  -0.79291   -0.79257   -0.79200   -0.79145   -0.79128   -0.78823   -0.78675   -0.78673
  -0.39517   -0.33821   -0.32964   -0.32881   -0.31889   -0.31631   -0.31562   -0.29808
   0.06053    0.06074    0.07207    0.09597    0.10306    0.10370    0.16118    0.16381
   0.16653    0.16907    0.17221    0.17224    0.21975    0.22407    0.22497    0.22905
   0.24546    0.25305    0.25363    0.25424    0.25479    0.26585    0.26880    0.27517
 prteigrs : prtvol=0 or 1, do not print more k-points.

--- !EnergyTerms
iteration_state     : {dtset: 2, }
comment             : Components of total free energy in Hartree
kinetic             :  1.46227963319139E+02
hartree             :  5.59846317148679E+01
xc                  : -9.09120402064797E+01
Ewald energy        : -2.70085975968065E+02
psp_core            :  1.49595106529080E+01
local_psp           : -2.05690415081749E+02
non_local_psp       : -9.11740416935811E+00
electric            :  0.00000000000000E+00
kohn_sham           : -3.58633729738737E+02
total_energy        : -3.58633729738737E+02
total_energy_eV     : -9.75892008506427E+03
band_energy         : -3.11094453642787E+01
...

Constant unreduced E calculation  - final values:
 (a. u.)
       E:   0.000000000E+00   0.000000000E+00   0.000000000E+00
       P:   1.470373044E-14   3.015767813E-03  -8.623040475E-14

    ebar:   0.000000000E+00   0.000000000E+00   0.000000000E+00
    pbar:   1.772233394E-12   3.634890105E-01  -1.039330825E-11

       e:   0.000000000E+00   0.000000000E+00   0.000000000E+00
       p:   1.352678450E-12   2.774373584E-01  -7.932817510E-12

 (S.I.), that is V/m for E, and C/m^2 for P
-      E:   0.000000000E+00   0.000000000E+00   0.000000000E+00
       P:   8.412704297E-13   1.725464361E-01  -4.933652040E-12

 Please check: COMMENT -
  As a rough estimate,
  to be below the critical field, the bandgap of your system
  should be larger than    0.00 eV.

 Cartesian components of stress tensor (hartree/bohr^3)
  sigma(1 1)= -1.85648835E-04  sigma(3 2)=  0.00000000E+00
  sigma(2 2)= -1.90744328E-04  sigma(3 1)= -3.70585279E-09
  sigma(3 3)= -4.85739994E-04  sigma(2 1)=  0.00000000E+00

-Cartesian components of stress tensor (GPa)         [Pressure=  8.4549E+00 GPa]
- sigma(1 1)= -5.46197638E+00  sigma(3 2)=  0.00000000E+00
- sigma(2 2)= -5.61189093E+00  sigma(3 1)= -1.09029935E-04
- sigma(3 3)= -1.42909616E+01  sigma(2 1)=  0.00000000E+00

== END DATASET(S) ==============================================================

 -outvars: echo values of variables after computation  --------
            acell      9.5914334888E+00  9.5914334888E+00  9.5914334888E+00 Bohr
              amu      1.78490000E+02  1.59994000E+01
         berryopt1         -1
         berryopt2          4
          chkprim           0
             ecut      2.50000000E+01 Hartree
           ecutsm      5.00000000E-01 Hartree
           etotal1    -3.5863372974E+02
           etotal2    -3.5863372974E+02
            fcart1     0.0000000000E+00 -2.3525587282E-03  5.6468863150E-22
                       0.0000000000E+00 -2.3524508890E-03  5.6468863150E-22
                       0.0000000000E+00 -2.3513858247E-03  5.6468863150E-22
                       0.0000000000E+00 -2.3518076938E-03  5.6468863150E-22
                       2.6612680767E-04  1.1733029140E-03 -4.8378066525E-05
                      -2.5860321023E-04  1.1702170678E-03 -4.2327958574E-05
                       2.6152621701E-04  1.1787182932E-03 -4.7039786181E-05
                      -2.6960633115E-04  1.1818632928E-03 -4.1955271023E-05
                       2.6960633115E-04  1.1818632928E-03  4.1955271023E-05
                      -2.6152621701E-04  1.1787182932E-03  4.7039786181E-05
                       2.5860321023E-04  1.1702170678E-03  4.2327958574E-05
                      -2.6612680767E-04  1.1733029140E-03  4.8378066525E-05
            fcart2     0.0000000000E+00 -2.3517054732E-03  5.6468863150E-22
                       0.0000000000E+00 -2.3532305351E-03  5.6468863150E-22
                       0.0000000000E+00 -2.3521202348E-03  5.6468863150E-22
                       0.0000000000E+00 -2.3510242364E-03  5.6468863150E-22
                       2.6610485903E-04  1.1732866159E-03 -4.8372201387E-05
                      -2.5862303266E-04  1.1701904415E-03 -4.2197610628E-05
                       2.6155146714E-04  1.1786993639E-03 -4.7174445704E-05
                      -2.6959303839E-04  1.1818638184E-03 -4.1778757497E-05
                       2.6959303839E-04  1.1818638184E-03  4.1778757497E-05
                      -2.6155146714E-04  1.1786993639E-03  4.7174445704E-05
                       2.5862303266E-04  1.1701904415E-03  4.2197610628E-05
                      -2.6610485903E-04  1.1732866159E-03  4.8372201387E-05
-          fftalg         512
           getwfk1          0
           getwfk2          1
           istwfk        1    0    0    1    0    0    0    0    0    0
                         0    0    0    0    0    0    1    0    0    1
                         0    0    0    0    0    0    0    0    0    0
                         0    0    0    0    0    0    0    0    0    0
                         0    0    0    0    0    0    0    0    0    0
                       outvar_i_n : Printing only first  50 k-points.
              ixc          11
           jdtset        1    2
              kpt      0.00000000E+00  0.00000000E+00  0.00000000E+00
                       1.66666667E-01  0.00000000E+00  0.00000000E+00
                       3.33333333E-01  0.00000000E+00  0.00000000E+00
                       5.00000000E-01  0.00000000E+00  0.00000000E+00
                       0.00000000E+00  1.66666667E-01  0.00000000E+00
                       1.66666667E-01  1.66666667E-01  0.00000000E+00
                       3.33333333E-01  1.66666667E-01  0.00000000E+00
                       5.00000000E-01  1.66666667E-01  0.00000000E+00
                      -3.33333333E-01  1.66666667E-01  0.00000000E+00
                      -1.66666667E-01  1.66666667E-01  0.00000000E+00
                       0.00000000E+00  3.33333333E-01  0.00000000E+00
                       1.66666667E-01  3.33333333E-01  0.00000000E+00
                       3.33333333E-01  3.33333333E-01  0.00000000E+00
                       5.00000000E-01  3.33333333E-01  0.00000000E+00
                      -3.33333333E-01  3.33333333E-01  0.00000000E+00
                      -1.66666667E-01  3.33333333E-01  0.00000000E+00
                       0.00000000E+00  5.00000000E-01  0.00000000E+00
                       1.66666667E-01  5.00000000E-01  0.00000000E+00
                       3.33333333E-01  5.00000000E-01  0.00000000E+00
                       5.00000000E-01  5.00000000E-01  0.00000000E+00
                       0.00000000E+00  0.00000000E+00  1.66666667E-01
                       1.66666667E-01  0.00000000E+00  1.66666667E-01
                       3.33333333E-01  0.00000000E+00  1.66666667E-01
                       5.00000000E-01  0.00000000E+00  1.66666667E-01
                      -3.33333333E-01  0.00000000E+00  1.66666667E-01
                      -1.66666667E-01  0.00000000E+00  1.66666667E-01
                       0.00000000E+00  1.66666667E-01  1.66666667E-01
                       1.66666667E-01  1.66666667E-01  1.66666667E-01
                       3.33333333E-01  1.66666667E-01  1.66666667E-01
                       5.00000000E-01  1.66666667E-01  1.66666667E-01
                      -3.33333333E-01  1.66666667E-01  1.66666667E-01
                      -1.66666667E-01  1.66666667E-01  1.66666667E-01
                       0.00000000E+00  3.33333333E-01  1.66666667E-01
                       1.66666667E-01  3.33333333E-01  1.66666667E-01
                       3.33333333E-01  3.33333333E-01  1.66666667E-01
                       5.00000000E-01  3.33333333E-01  1.66666667E-01
                      -3.33333333E-01  3.33333333E-01  1.66666667E-01
                      -1.66666667E-01  3.33333333E-01  1.66666667E-01
                       0.00000000E+00  5.00000000E-01  1.66666667E-01
                       1.66666667E-01  5.00000000E-01  1.66666667E-01
                       3.33333333E-01  5.00000000E-01  1.66666667E-01
                       5.00000000E-01  5.00000000E-01  1.66666667E-01
                      -3.33333333E-01  5.00000000E-01  1.66666667E-01
                      -1.66666667E-01  5.00000000E-01  1.66666667E-01
                       0.00000000E+00 -3.33333333E-01  1.66666667E-01
                       1.66666667E-01 -3.33333333E-01  1.66666667E-01
                       3.33333333E-01 -3.33333333E-01  1.66666667E-01
                       5.00000000E-01 -3.33333333E-01  1.66666667E-01
                      -3.33333333E-01 -3.33333333E-01  1.66666667E-01
                      -1.66666667E-01 -3.33333333E-01  1.66666667E-01
                       outvar_i_n : Printing only first  50 k-points.
           kptopt           2
         kptrlatt        6    0    0      0    6    0      0    0    6
          kptrlen      5.75486009E+01
P           mkmem           4
            natom          12
            nband          48
           ndtset           2
            ngfft          45      45      45
             nkpt         112
            nstep         100
             nsym           2
           ntypat           2
              occ      2.000000  2.000000  2.000000  2.000000  2.000000  2.000000
                       2.000000  2.000000  2.000000  2.000000  2.000000  2.000000
                       2.000000  2.000000  2.000000  2.000000  2.000000  2.000000
                       2.000000  2.000000  2.000000  2.000000  2.000000  2.000000
                       2.000000  2.000000  2.000000  2.000000  2.000000  2.000000
                       2.000000  2.000000  2.000000  2.000000  2.000000  2.000000
                       2.000000  2.000000  2.000000  2.000000  2.000000  2.000000
                       2.000000  2.000000  2.000000  2.000000  2.000000  2.000000
        pawecutdg      2.50000000E+01 Hartree
         pawxcdev           0
            rfdir1          1       1       1
            rfdir2          0       0       0
           strten1    -1.8564546145E-04 -1.9074086931E-04 -4.8573715312E-04
                       0.0000000000E+00 -3.7260806556E-09  0.0000000000E+00
           strten2    -1.8564883483E-04 -1.9074432774E-04 -4.8573999427E-04
                       0.0000000000E+00 -3.7058527942E-09  0.0000000000E+00
        symmorphi           0
           symrel      1  0  0   0  1  0   0  0  1      -1  0  0   0  1  0   0  0 -1
           toldfe      1.00000000E-10 Hartree
           tolmxf      1.00000000E-05
           tsmear      4.00000000E-02 Hartree
            typat      1  1  1  1  2  2  2  2  2  2  2  2
              wtk        0.00463    0.00926    0.00926    0.00463    0.00926    0.00926
                         0.00926    0.00926    0.00926    0.00926    0.00926    0.00926
                         0.00926    0.00926    0.00926    0.00926    0.00463    0.00926
                         0.00926    0.00463    0.00926    0.00926    0.00926    0.00926
                         0.00926    0.00926    0.00926    0.00926    0.00926    0.00926
                         0.00926    0.00926    0.00926    0.00926    0.00926    0.00926
                         0.00926    0.00926    0.00926    0.00926    0.00926    0.00926
                         0.00926    0.00926    0.00926    0.00926    0.00926    0.00926
                         0.00926    0.00926
                       outvars : Printing only first  50 k-points.
           xangst      0.0000000000E+00  7.5482121603E-02  0.0000000000E+00
                       2.5377840000E+00  2.6132661216E+00  0.0000000000E+00
                       0.0000000000E+00  2.6132661216E+00  2.5377840000E+00
                       2.5377840000E+00  7.5482121603E-02  2.5377840000E+00
                       1.3261725384E+00  1.2678536784E+00  1.0166114255E+00
                       1.2116114616E+00  1.2678536784E+00  3.5543954255E+00
                       3.8639565384E+00  3.8056376784E+00  1.0166114255E+00
                       3.7493954616E+00  3.8056376784E+00  3.5543954255E+00
                       1.3261725384E+00  3.8056376784E+00  1.5211725745E+00
                       1.2116114616E+00  3.8056376784E+00  4.0589565745E+00
                       3.8639565384E+00  1.2678536784E+00  1.5211725745E+00
                       3.7493954616E+00  1.2678536784E+00  4.0589565745E+00
            xcart      0.0000000000E+00  1.4264053776E-01  0.0000000000E+00
                       4.7957167444E+00  4.9383572822E+00  0.0000000000E+00
                       0.0000000000E+00  4.9383572822E+00  4.7957167444E+00
                       4.7957167444E+00  1.4264053776E-01  4.7957167444E+00
                       2.5061029025E+00  2.3958962287E+00  1.9211171777E+00
                       2.2896138419E+00  2.3958962287E+00  6.7168339222E+00
                       7.3018196469E+00  7.1916129731E+00  1.9211171777E+00
                       7.0853305864E+00  7.1916129731E+00  6.7168339222E+00
                       2.5061029025E+00  7.1916129731E+00  2.8745995667E+00
                       2.2896138419E+00  7.1916129731E+00  7.6703163111E+00
                       7.3018196469E+00  2.3958962287E+00  2.8745995667E+00
                       7.0853305864E+00  2.3958962287E+00  7.6703163111E+00
             xred      0.0000000000E+00  1.4871660000E-02  0.0000000000E+00
                       5.0000000000E-01  5.1487166000E-01  0.0000000000E+00
                       0.0000000000E+00  5.1487166000E-01  5.0000000000E-01
                       5.0000000000E-01  1.4871660000E-02  5.0000000000E-01
                       2.6128554250E-01  2.4979542750E-01  2.0029510500E-01
                       2.3871445750E-01  2.4979542750E-01  7.0029510500E-01
                       7.6128554250E-01  7.4979542750E-01  2.0029510500E-01
                       7.3871445750E-01  7.4979542750E-01  7.0029510500E-01
                       2.6128554250E-01  7.4979542750E-01  2.9970489500E-01
                       2.3871445750E-01  7.4979542750E-01  7.9970489500E-01
                       7.6128554250E-01  2.4979542750E-01  2.9970489500E-01
                       7.3871445750E-01  2.4979542750E-01  7.9970489500E-01
            znucl       72.00000    8.00000

- Timing analysis has been suppressed with timopt=0

 Suggested references for the acknowledgment of ABINIT usage.

 Calculation completed.
.Delivered   0 WARNINGs and   2 COMMENTs to log file.