.Version 9.4.2 of ABINIT

 ABINIT is a project of the Universite Catholique de Louvain,
 Corning Inc. and other collaborators, see ~abinit/doc/developers/contributors.txt .
 acknowledgments of the ABINIT effort.

.Starting date : Sun 20 Jun 2021.
- ( at 22h11 )

- input  file    -> /p/work1/jiahaoz/HfO4/CUBIC_ITERATE/itertwo/P-0.10/scf10
- output file    -> /p/work1/jiahaoz/HfO4/CUBIC_ITERATE/itertwo/P-0.10/scf10.abo
- root for input  files -> i
- root for output files -> o

 DATASET    1 : space group P1 (#  1); Bravais aP (primitive triclinic)
     intxc =       0    ionmov =       0      iscf =       7    lmnmax =       8
     lnmax =       8     mgfft =      45  mpssoang =       4    mqgrid =    3001
     natom =      12  nloc_mem =       1    nspden =       1   nspinor =       1
    nsppol =       1      nsym =       1    n1xccc =    2501    ntypat =       2
    occopt =       1   xclevel =       2
-    mband =          48        mffmem =           1         mkmem =           4
       mpw =        5294          nfft =       91125          nkpt =         112
  Rough estimation (10% accuracy) of disk space for files :

 DATASET    2 : space group P1 (#  1); Bravais aP (primitive triclinic)
     intxc =       0    ionmov =       0      iscf =       7    lmnmax =       8
     lnmax =       8     mgfft =      45  mpssoang =       4    mqgrid =    3001
     natom =      12  nloc_mem =       1    nspden =       1   nspinor =       1
    nsppol =       1      nsym =       1    n1xccc =    2501    ntypat =       2
    occopt =       1   xclevel =       2
-    mband =          48        mffmem =           1         mkmem =           4
       mpw =        5294          nfft =       91125          nkpt =         112
  Rough estimation (10% accuracy) of disk space for files :

------------- Echo of variables that govern the present computation ------------
-
- outvars: echo of selected default values
-   iomode0 =  0 , fftalg0 =512 , wfoptalg0 =  0
-
- outvars: echo of global parameters not present in the input file
-  max_nthreads =    0
-
 -outvars: echo values of preprocessed input variables --------
            acell      9.5914334888E+00  9.5914334888E+00  9.5914334888E+00 Bohr
              amu      1.78490000E+02  1.59994000E+01
         berryopt1         -1
         berryopt2          4
          chkprim           0
             ecut      2.50000000E+01 Hartree
           ecutsm      5.00000000E-01 Hartree
           efield     -4.28213085E-06 -9.93487689E-04 -4.89400211E-06
-          fftalg         512
           getwfk1          0
           getwfk2          1
           istwfk        1    0    0    1    0    0    0    0    0    0
                         0    0    0    0    0    0    1    0    0    1
                         0    0    0    0    0    0    0    0    0    0
                         0    0    0    0    0    0    0    0    0    0
                         0    0    0    0    0    0    0    0    0    0
                       outvar_i_n : Printing only first  50 k-points.
              ixc          11
           jdtset        1    2
              kpt      0.00000000E+00  0.00000000E+00  0.00000000E+00
                       1.66666667E-01  0.00000000E+00  0.00000000E+00
                       3.33333333E-01  0.00000000E+00  0.00000000E+00
                       5.00000000E-01  0.00000000E+00  0.00000000E+00
                       0.00000000E+00  1.66666667E-01  0.00000000E+00
                       1.66666667E-01  1.66666667E-01  0.00000000E+00
                       3.33333333E-01  1.66666667E-01  0.00000000E+00
                       5.00000000E-01  1.66666667E-01  0.00000000E+00
                      -3.33333333E-01  1.66666667E-01  0.00000000E+00
                      -1.66666667E-01  1.66666667E-01  0.00000000E+00
                       0.00000000E+00  3.33333333E-01  0.00000000E+00
                       1.66666667E-01  3.33333333E-01  0.00000000E+00
                       3.33333333E-01  3.33333333E-01  0.00000000E+00
                       5.00000000E-01  3.33333333E-01  0.00000000E+00
                      -3.33333333E-01  3.33333333E-01  0.00000000E+00
                      -1.66666667E-01  3.33333333E-01  0.00000000E+00
                       0.00000000E+00  5.00000000E-01  0.00000000E+00
                       1.66666667E-01  5.00000000E-01  0.00000000E+00
                       3.33333333E-01  5.00000000E-01  0.00000000E+00
                       5.00000000E-01  5.00000000E-01  0.00000000E+00
                       0.00000000E+00  0.00000000E+00  1.66666667E-01
                       1.66666667E-01  0.00000000E+00  1.66666667E-01
                       3.33333333E-01  0.00000000E+00  1.66666667E-01
                       5.00000000E-01  0.00000000E+00  1.66666667E-01
                      -3.33333333E-01  0.00000000E+00  1.66666667E-01
                      -1.66666667E-01  0.00000000E+00  1.66666667E-01
                       0.00000000E+00  1.66666667E-01  1.66666667E-01
                       1.66666667E-01  1.66666667E-01  1.66666667E-01
                       3.33333333E-01  1.66666667E-01  1.66666667E-01
                       5.00000000E-01  1.66666667E-01  1.66666667E-01
                      -3.33333333E-01  1.66666667E-01  1.66666667E-01
                      -1.66666667E-01  1.66666667E-01  1.66666667E-01
                       0.00000000E+00  3.33333333E-01  1.66666667E-01
                       1.66666667E-01  3.33333333E-01  1.66666667E-01
                       3.33333333E-01  3.33333333E-01  1.66666667E-01
                       5.00000000E-01  3.33333333E-01  1.66666667E-01
                      -3.33333333E-01  3.33333333E-01  1.66666667E-01
                      -1.66666667E-01  3.33333333E-01  1.66666667E-01
                       0.00000000E+00  5.00000000E-01  1.66666667E-01
                       1.66666667E-01  5.00000000E-01  1.66666667E-01
                       3.33333333E-01  5.00000000E-01  1.66666667E-01
                       5.00000000E-01  5.00000000E-01  1.66666667E-01
                      -3.33333333E-01  5.00000000E-01  1.66666667E-01
                      -1.66666667E-01  5.00000000E-01  1.66666667E-01
                       0.00000000E+00 -3.33333333E-01  1.66666667E-01
                       1.66666667E-01 -3.33333333E-01  1.66666667E-01
                       3.33333333E-01 -3.33333333E-01  1.66666667E-01
                       5.00000000E-01 -3.33333333E-01  1.66666667E-01
                      -3.33333333E-01 -3.33333333E-01  1.66666667E-01
                      -1.66666667E-01 -3.33333333E-01  1.66666667E-01
                       outvar_i_n : Printing only first  50 k-points.
           kptopt           2
         kptrlatt        6    0    0      0    6    0      0    0    6
          kptrlen      5.75486009E+01
P           mkmem           4
            natom          12
            nband          48
           ndtset           2
            ngfft          45      45      45
             nkpt         112
            nstep         100
             nsym           1
           ntypat           2
              occ      2.000000  2.000000  2.000000  2.000000  2.000000  2.000000
                       2.000000  2.000000  2.000000  2.000000  2.000000  2.000000
                       2.000000  2.000000  2.000000  2.000000  2.000000  2.000000
                       2.000000  2.000000  2.000000  2.000000  2.000000  2.000000
                       2.000000  2.000000  2.000000  2.000000  2.000000  2.000000
                       2.000000  2.000000  2.000000  2.000000  2.000000  2.000000
                       2.000000  2.000000  2.000000  2.000000  2.000000  2.000000
                       2.000000  2.000000  2.000000  2.000000  2.000000  2.000000
        pawecutdg      2.50000000E+01 Hartree
         pawxcdev           0
            rfdir1          1       1       1
            rfdir2          0       0       0
          spgroup           1
        symmorphi           0
           toldfe      1.00000000E-10 Hartree
           tolmxf      1.00000000E-05
           tsmear      4.00000000E-02 Hartree
            typat      1  1  1  1  2  2  2  2  2  2  2  2
              wtk        0.00463    0.00926    0.00926    0.00463    0.00926    0.00926
                         0.00926    0.00926    0.00926    0.00926    0.00926    0.00926
                         0.00926    0.00926    0.00926    0.00926    0.00463    0.00926
                         0.00926    0.00463    0.00926    0.00926    0.00926    0.00926
                         0.00926    0.00926    0.00926    0.00926    0.00926    0.00926
                         0.00926    0.00926    0.00926    0.00926    0.00926    0.00926
                         0.00926    0.00926    0.00926    0.00926    0.00926    0.00926
                         0.00926    0.00926    0.00926    0.00926    0.00926    0.00926
                         0.00926    0.00926
                       outvars : Printing only first  50 k-points.
           xangst      2.2931015254E-01 -1.6496103557E-03 -1.0163774164E-02
                       2.6068176632E+00  2.5361341359E+00 -3.1631254461E-01
                       2.2941836365E-01  2.5361458604E+00  2.2213875055E+00
                       2.6069713514E+00 -1.6085997662E-03  2.5276454514E+00
                       1.6142286727E+00  1.2701747483E+00  1.0281277116E+00
                       1.2224432440E+00  1.2703813747E+00  3.5658537487E+00
                       4.3056940704E+00  3.2904422120E+00  5.1519624042E-01
                       3.6064299202E+00  3.2903917101E+00  3.0530751028E+00
                       1.6144517946E+00  3.8080765015E+00  1.1833244710E+00
                       1.2223054931E+00  3.8082573440E+00  3.7210936503E+00
                       4.3049540526E+00  7.5391116669E-01  1.6955416068E+00
                       3.6068782452E+00  7.5361658072E-01  4.2337228715E+00
            xcart      4.3333338779E-01 -3.1173117982E-03 -1.9206749647E-02
                       4.9261714618E+00  4.7925989530E+00 -5.9774408171E-01
                       4.3353787716E-01  4.7926211093E+00  4.1978140204E+00
                       4.9264618905E+00 -3.0398130156E-03  4.7765576642E+00
                       3.0504501072E+00  2.4002824152E+00  1.9428798046E+00
                       2.3100829441E+00  2.4006728825E+00  6.7384870149E+00
                       8.1365826051E+00  6.2180346367E+00  9.7357979909E-01
                       6.8151648667E+00  6.2179392019E+00  5.7694758074E+00
                       3.0508717466E+00  7.1962216809E+00  2.2361591765E+00
                       2.3098226326E+00  7.1965634236E+00  7.0318479140E+00
                       8.1351841741E+00  1.4246856336E+00  3.2041092837E+00
                       6.8160120780E+00  1.4241289468E+00  8.0005767497E+00
             xred      4.5179210000E-02 -3.2501000000E-04 -2.0024900000E-03
                       5.1360117000E-01  4.9967494000E-01 -6.2320620000E-02
                       4.5200530000E-02  4.9967725000E-01  4.3766284000E-01
                       5.1363145000E-01 -3.1693000000E-04  4.9800248000E-01
                       3.1803902000E-01  2.5025273000E-01  2.0256407000E-01
[...]
    4     -0.00000000862564     0.00000002368878     0.00000002224693
    5      0.00000029188965     0.00000001475645     0.00000001787063
    6      0.00000014015250     0.00000007467291    -0.00000001751260
    7      0.00000004904070    -0.00000012434736     0.00000002932340
    8     -0.00000047966143    -0.00000019284198    -0.00000013232435
    9      0.00000031047164     0.00000003599664    -0.00000002406257
   10      0.00000016262640     0.00000006143701     0.00000000495320
   11      0.00000005332566     0.00000003858822     0.00000006540907
   12     -0.00000046423460     0.00000003039949     0.00000005166545
 frms,max,avg= 1.4669811E-07 4.7966143E-07   7.738E-06  8.312E-07 -2.251E-07 h/b

 cartesian forces (eV/Angstrom) at end:
    1     -0.00000135586891     0.00000182497718    -0.00000027635995
    2     -0.00000086522168     0.00000006647859    -0.00000071976213
    3     -0.00000060634609     0.00000004457600     0.00000009267908
    4     -0.00000044354800     0.00000121812597     0.00000114398314
    5      0.00001500956821     0.00000075880723     0.00000091894481
    6      0.00000720693082     0.00000383983530    -0.00000090053380
    7      0.00000252177419    -0.00000639419758     0.00000150786987
    8     -0.00002466518026    -0.00000991633237    -0.00000680439108
    9      0.00001596509235     0.00000185102154    -0.00000123734694
   10      0.00000836258521     0.00000315921782     0.00000025470391
   11      0.00000274211524     0.00000198428586     0.00000336346927
   12     -0.00002387190108     0.00000156320446     0.00000265674380
 frms,max,avg= 7.5435193E-06 2.4665180E-05   3.979E-04  4.274E-05 -1.158E-05 e/A
 length scales=  9.591433488838  9.591433488838  9.591433488838 bohr
              =  5.075568000000  5.075568000000  5.075568000000 angstroms
 prteigrs : about to open file o_DS2_EIG
 Fermi (or HOMO) energy (hartree) =   0.27964   Average Vxc (hartree)=  -0.44603
 Eigenvalues (hartree) for nkpt= 112  k points:
 kpt#   1, nband= 48, wtk=  0.00463, kpt=  0.0000  0.0000  0.0000 (reduced coord)
  -1.94334   -1.94260   -1.94252   -1.94250   -0.80675   -0.80607   -0.80603   -0.79577
  -0.79309   -0.79296   -0.79289   -0.79286   -0.79200   -0.78791   -0.78780   -0.78726
  -0.39863   -0.34413   -0.34249   -0.33627   -0.31809   -0.31169   -0.31042   -0.30824
   0.06706    0.06905    0.07513    0.09881    0.10671    0.10754    0.15940    0.15956
   0.16015    0.16248    0.17633    0.19111    0.19500    0.20345    0.21192    0.21537
   0.22832    0.23289    0.23422    0.23722    0.24675    0.26544    0.27961    0.27964
 prteigrs : prtvol=0 or 1, do not print more k-points.

--- !EnergyTerms
iteration_state     : {dtset: 2, }
comment             : Components of total free energy in Hartree
kinetic             :  1.46342336228490E+02
hartree             :  5.64163921189917E+01
xc                  : -9.09384546417261E+01
Ewald energy        : -2.69426731725743E+02
psp_core            :  1.49595106529080E+01
local_psp           : -2.06863302247149E+02
non_local_psp       : -9.12922021475926E+00
electric            :  7.20403977251689E-03
kohn_sham           : -3.58639469828988E+02
total_energy        : -3.58632265789215E+02
total_energy_eV     : -9.75888024897188E+03
band_energy         : -3.13477837463400E+01
...

Constant unreduced E calculation  - final values:
 (a. u.)
       E:  -4.282130853E-06  -9.934876892E-04  -4.894002107E-06
       P:  -9.222215125E-06   8.257532197E-03  -3.955575266E-06

    ebar:  -4.107177326E-05  -9.528971093E-03  -4.694049571E-05
    pbar:  -1.111549051E-03   9.952762925E-01  -4.767635404E-04

       e:  -3.134852485E-05  -7.273101778E-03  -3.582789783E-05
       p:  -8.484031803E-04   7.596565990E-01  -3.638955056E-04

 (S.I.), that is V/m for E, and C/m^2 for P
-      E:  -2.201960033E+06  -5.108718674E+08  -2.516596856E+06
       P:  -5.276468387E-04   4.724527350E-01  -2.263172953E-04

 Please check: COMMENT -
  As a rough estimate,
  to be below the critical field, the bandgap of your system
  should be larger than    1.56 eV.

 Cartesian components of stress tensor (hartree/bohr^3)
  sigma(1 1)= -2.20635464E-04  sigma(3 2)=  1.40980544E-08
  sigma(2 2)= -2.40323316E-04  sigma(3 1)=  8.30463339E-10
  sigma(3 3)= -5.85759367E-04  sigma(2 1)=  8.83879756E-08

-Cartesian components of stress tensor (GPa)         [Pressure=  1.0265E+01 GPa]
- sigma(1 1)= -6.49131838E+00  sigma(3 2)=  4.14779010E-04
- sigma(2 2)= -7.07055488E+00  sigma(3 1)=  2.44330709E-05
- sigma(3 3)= -1.72336327E+01  sigma(2 1)=  2.60046359E-03

== END DATASET(S) ==============================================================

 -outvars: echo values of variables after computation  --------
            acell      9.5914334888E+00  9.5914334888E+00  9.5914334888E+00 Bohr
              amu      1.78490000E+02  1.59994000E+01
         berryopt1         -1
         berryopt2          4
          chkprim           0
             ecut      2.50000000E+01 Hartree
           ecutsm      5.00000000E-01 Hartree
           efield     -4.28213085E-06 -9.93487689E-04 -4.89400211E-06
           etotal1    -3.5863960335E+02
           etotal2    -3.5863226579E+02
            fcart1    -2.2134336839E-04  5.1373075813E-03  6.4642842561E-05
                       2.6602002288E-04  5.1385861344E-03 -1.7434763713E-05
                      -2.1846467352E-04  5.1364353193E-03 -1.5577850923E-05
                       2.6819716864E-04  5.1392997248E-03  6.6515519496E-05
                      -1.5032289120E-04 -2.5688403586E-03  2.9622974896E-04
                       1.2852261323E-04 -2.5674214190E-03  2.9436340505E-04
                      -6.8507776716E-04 -2.5705466660E-03  3.3529077093E-04
                       6.5916609403E-04 -2.5636385256E-03  3.4062735274E-04
                      -1.5218446069E-04 -2.5721757800E-03 -3.2162825449E-04
                       1.3074987115E-04 -2.5705632217E-03 -3.2018274629E-04
                      -6.7729848575E-04 -2.5726529227E-03 -3.5862167165E-04
                       6.5203587678E-04 -2.5657898664E-03 -3.6422435267E-04
            fcart2    -2.6367454541E-08  3.5490158688E-08 -5.3743457372E-09
                      -1.6825884253E-08  1.2928027696E-09 -1.3997145994E-08
                      -1.1791555021E-08  8.6686530184E-10  1.8023213886E-09
                      -8.6256359517E-09  2.3688780589E-08  2.2246931967E-08
                       2.9188965357E-07  1.4756452432E-08  1.7870632801E-08
                       1.4015250213E-07  7.4672913887E-08 -1.7512595568E-08
                       4.9040704196E-08 -1.2434735566E-07  2.9323402838E-08
                      -4.7966142792E-07 -1.9284197790E-07 -1.3232434986E-07
                       3.1047164107E-07  3.5996640854E-08 -2.4062568873E-08
                       1.6262640368E-07  6.1437010202E-08  4.9532028362E-09
                       5.3325655761E-08  3.8588219523E-08  6.5409068830E-08
                      -4.6423460273E-07  3.0399489309E-08  5.1665445371E-08
-          fftalg         512
           getwfk1          0
           getwfk2          1
           istwfk        1    0    0    1    0    0    0    0    0    0
                         0    0    0    0    0    0    1    0    0    1
                         0    0    0    0    0    0    0    0    0    0
                         0    0    0    0    0    0    0    0    0    0
                         0    0    0    0    0    0    0    0    0    0
                       outvar_i_n : Printing only first  50 k-points.
              ixc          11
           jdtset        1    2
              kpt      0.00000000E+00  0.00000000E+00  0.00000000E+00
                       1.66666667E-01  0.00000000E+00  0.00000000E+00
                       3.33333333E-01  0.00000000E+00  0.00000000E+00
                       5.00000000E-01  0.00000000E+00  0.00000000E+00
                       0.00000000E+00  1.66666667E-01  0.00000000E+00
                       1.66666667E-01  1.66666667E-01  0.00000000E+00
                       3.33333333E-01  1.66666667E-01  0.00000000E+00
                       5.00000000E-01  1.66666667E-01  0.00000000E+00
                      -3.33333333E-01  1.66666667E-01  0.00000000E+00
                      -1.66666667E-01  1.66666667E-01  0.00000000E+00
                       0.00000000E+00  3.33333333E-01  0.00000000E+00
                       1.66666667E-01  3.33333333E-01  0.00000000E+00
                       3.33333333E-01  3.33333333E-01  0.00000000E+00
                       5.00000000E-01  3.33333333E-01  0.00000000E+00
                      -3.33333333E-01  3.33333333E-01  0.00000000E+00
                      -1.66666667E-01  3.33333333E-01  0.00000000E+00
                       0.00000000E+00  5.00000000E-01  0.00000000E+00
                       1.66666667E-01  5.00000000E-01  0.00000000E+00
                       3.33333333E-01  5.00000000E-01  0.00000000E+00
                       5.00000000E-01  5.00000000E-01  0.00000000E+00
                       0.00000000E+00  0.00000000E+00  1.66666667E-01
                       1.66666667E-01  0.00000000E+00  1.66666667E-01
                       3.33333333E-01  0.00000000E+00  1.66666667E-01
                       5.00000000E-01  0.00000000E+00  1.66666667E-01
                      -3.33333333E-01  0.00000000E+00  1.66666667E-01
                      -1.66666667E-01  0.00000000E+00  1.66666667E-01
                       0.00000000E+00  1.66666667E-01  1.66666667E-01
                       1.66666667E-01  1.66666667E-01  1.66666667E-01
                       3.33333333E-01  1.66666667E-01  1.66666667E-01
                       5.00000000E-01  1.66666667E-01  1.66666667E-01
                      -3.33333333E-01  1.66666667E-01  1.66666667E-01
                      -1.66666667E-01  1.66666667E-01  1.66666667E-01
                       0.00000000E+00  3.33333333E-01  1.66666667E-01
                       1.66666667E-01  3.33333333E-01  1.66666667E-01
                       3.33333333E-01  3.33333333E-01  1.66666667E-01
                       5.00000000E-01  3.33333333E-01  1.66666667E-01
                      -3.33333333E-01  3.33333333E-01  1.66666667E-01
                      -1.66666667E-01  3.33333333E-01  1.66666667E-01
                       0.00000000E+00  5.00000000E-01  1.66666667E-01
                       1.66666667E-01  5.00000000E-01  1.66666667E-01
                       3.33333333E-01  5.00000000E-01  1.66666667E-01
                       5.00000000E-01  5.00000000E-01  1.66666667E-01
                      -3.33333333E-01  5.00000000E-01  1.66666667E-01
                      -1.66666667E-01  5.00000000E-01  1.66666667E-01
                       0.00000000E+00 -3.33333333E-01  1.66666667E-01
                       1.66666667E-01 -3.33333333E-01  1.66666667E-01
                       3.33333333E-01 -3.33333333E-01  1.66666667E-01
                       5.00000000E-01 -3.33333333E-01  1.66666667E-01
                      -3.33333333E-01 -3.33333333E-01  1.66666667E-01
                      -1.66666667E-01 -3.33333333E-01  1.66666667E-01
                       outvar_i_n : Printing only first  50 k-points.
           kptopt           2
         kptrlatt        6    0    0      0    6    0      0    0    6
          kptrlen      5.75486009E+01
P           mkmem           4
            natom          12
            nband          48
           ndtset           2
            ngfft          45      45      45
             nkpt         112
            nstep         100
             nsym           1
           ntypat           2
              occ      2.000000  2.000000  2.000000  2.000000  2.000000  2.000000
                       2.000000  2.000000  2.000000  2.000000  2.000000  2.000000
                       2.000000  2.000000  2.000000  2.000000  2.000000  2.000000
                       2.000000  2.000000  2.000000  2.000000  2.000000  2.000000
                       2.000000  2.000000  2.000000  2.000000  2.000000  2.000000
                       2.000000  2.000000  2.000000  2.000000  2.000000  2.000000
                       2.000000  2.000000  2.000000  2.000000  2.000000  2.000000
                       2.000000  2.000000  2.000000  2.000000  2.000000  2.000000
        pawecutdg      2.50000000E+01 Hartree
         pawxcdev           0
            rfdir1          1       1       1
            rfdir2          0       0       0
          spgroup           1
           strten1    -2.1415488199E-04 -2.5178944430E-04 -5.7928774296E-04
                       3.0207409136E-08 -1.4822736668E-09  9.6617734208E-08
           strten2    -2.2063546428E-04 -2.4032331617E-04 -5.8575936651E-04
                       1.4098054379E-08  8.3046333910E-10  8.8387975644E-08
        symmorphi           0
           toldfe      1.00000000E-10 Hartree
           tolmxf      1.00000000E-05
           tsmear      4.00000000E-02 Hartree
            typat      1  1  1  1  2  2  2  2  2  2  2  2
              wtk        0.00463    0.00926    0.00926    0.00463    0.00926    0.00926
                         0.00926    0.00926    0.00926    0.00926    0.00926    0.00926
                         0.00926    0.00926    0.00926    0.00926    0.00463    0.00926
                         0.00926    0.00463    0.00926    0.00926    0.00926    0.00926
                         0.00926    0.00926    0.00926    0.00926    0.00926    0.00926
                         0.00926    0.00926    0.00926    0.00926    0.00926    0.00926
                         0.00926    0.00926    0.00926    0.00926    0.00926    0.00926
                         0.00926    0.00926    0.00926    0.00926    0.00926    0.00926
                         0.00926    0.00926
                       outvars : Printing only first  50 k-points.
           xangst      2.2931015254E-01 -1.6496103557E-03 -1.0163774164E-02
                       2.6068176632E+00  2.5361341359E+00 -3.1631254461E-01
                       2.2941836365E-01  2.5361458604E+00  2.2213875055E+00
                       2.6069713514E+00 -1.6085997662E-03  2.5276454514E+00
                       1.6142286727E+00  1.2701747483E+00  1.0281277116E+00
                       1.2224432440E+00  1.2703813747E+00  3.5658537487E+00
                       4.3056940704E+00  3.2904422120E+00  5.1519624042E-01
                       3.6064299202E+00  3.2903917101E+00  3.0530751028E+00
                       1.6144517946E+00  3.8080765015E+00  1.1833244710E+00
                       1.2223054931E+00  3.8082573440E+00  3.7210936503E+00
                       4.3049540526E+00  7.5391116669E-01  1.6955416068E+00
                       3.6068782452E+00  7.5361658072E-01  4.2337228715E+00
            xcart      4.3333338779E-01 -3.1173117982E-03 -1.9206749647E-02
                       4.9261714618E+00  4.7925989530E+00 -5.9774408171E-01
                       4.3353787716E-01  4.7926211093E+00  4.1978140204E+00
                       4.9264618905E+00 -3.0398130156E-03  4.7765576642E+00
                       3.0504501072E+00  2.4002824152E+00  1.9428798046E+00
                       2.3100829441E+00  2.4006728825E+00  6.7384870149E+00
                       8.1365826051E+00  6.2180346367E+00  9.7357979909E-01
                       6.8151648667E+00  6.2179392019E+00  5.7694758074E+00
                       3.0508717466E+00  7.1962216809E+00  2.2361591765E+00
                       2.3098226326E+00  7.1965634236E+00  7.0318479140E+00
                       8.1351841741E+00  1.4246856336E+00  3.2041092837E+00
                       6.8160120780E+00  1.4241289468E+00  8.0005767497E+00
             xred      4.5179210000E-02 -3.2501000000E-04 -2.0024900000E-03
                       5.1360117000E-01  4.9967494000E-01 -6.2320620000E-02
                       4.5200530000E-02  4.9967725000E-01  4.3766284000E-01
                       5.1363145000E-01 -3.1693000000E-04  4.9800248000E-01
                       3.1803902000E-01  2.5025273000E-01  2.0256407000E-01
                       2.4084856000E-01  2.5029344000E-01  7.0255265000E-01
                       8.4831768000E-01  6.4829044000E-01  1.0150514000E-01
                       7.1054706000E-01  6.4828049000E-01  6.0152383000E-01
                       3.1808298000E-01  7.5027593000E-01  2.3314129000E-01
                       2.4082142000E-01  7.5031156000E-01  7.3313837000E-01
                       8.4817188000E-01  1.4853730000E-01  3.3405948000E-01
                       7.1063539000E-01  1.4847926000E-01  8.3413775000E-01
            znucl       72.00000    8.00000

- Timing analysis has been suppressed with timopt=0

 Suggested references for the acknowledgment of ABINIT usage.

 Calculation completed.
.Delivered   0 WARNINGs and   2 COMMENTs to log file.