.Version 9.4.2 of ABINIT

 ABINIT is a project of the Universite Catholique de Louvain,
 Corning Inc. and other collaborators, see ~abinit/doc/developers/contributors.txt .
 acknowledgments of the ABINIT effort.

.Starting date : Sun 20 Jun 2021.
- ( at 20h01 )

- input  file    -> /p/work1/jiahaoz/HfO4/CUBIC_ITERATE/iterone/P0.02/scf10
- output file    -> /p/work1/jiahaoz/HfO4/CUBIC_ITERATE/iterone/P0.02/scf10.abo
- root for input  files -> i
- root for output files -> o

 DATASET    1 : space group P2 (#  3); Bravais mP (primitive monocl.)
     intxc =       0    ionmov =       0      iscf =       7    lmnmax =       8
     lnmax =       8     mgfft =      45  mpssoang =       4    mqgrid =    3001
     natom =      12  nloc_mem =       1    nspden =       1   nspinor =       1
    nsppol =       1      nsym =       2    n1xccc =    2501    ntypat =       2
    occopt =       1   xclevel =       2
-    mband =          48        mffmem =           1         mkmem =           4
       mpw =        5294          nfft =       91125          nkpt =         112
  Rough estimation (10% accuracy) of disk space for files :

 DATASET    2 : space group P2 (#  3); Bravais mP (primitive monocl.)
     intxc =       0    ionmov =       0      iscf =       7    lmnmax =       8
     lnmax =       8     mgfft =      45  mpssoang =       4    mqgrid =    3001
     natom =      12  nloc_mem =       1    nspden =       1   nspinor =       1
    nsppol =       1      nsym =       2    n1xccc =    2501    ntypat =       2
    occopt =       1   xclevel =       2
-    mband =          48        mffmem =           1         mkmem =           4
       mpw =        5294          nfft =       91125          nkpt =         112
  Rough estimation (10% accuracy) of disk space for files :

------------- Echo of variables that govern the present computation ------------
-
- outvars: echo of selected default values
-   iomode0 =  0 , fftalg0 =512 , wfoptalg0 =  0
-
- outvars: echo of global parameters not present in the input file
-  max_nthreads =    0
-
 -outvars: echo values of preprocessed input variables --------
            acell      9.5914334888E+00  9.5914334888E+00  9.5914334888E+00 Bohr
              amu      1.78490000E+02  1.59994000E+01
         berryopt1         -1
         berryopt2          4
          chkprim           0
             ecut      2.50000000E+01 Hartree
           ecutsm      5.00000000E-01 Hartree
           efield      5.82636698E-15  4.28503415E-05  1.86998755E-12
-          fftalg         512
           getwfk1          0
           getwfk2          1
           istwfk        1    0    0    1    0    0    0    0    0    0
                         0    0    0    0    0    0    1    0    0    1
                         0    0    0    0    0    0    0    0    0    0
                         0    0    0    0    0    0    0    0    0    0
                         0    0    0    0    0    0    0    0    0    0
                       outvar_i_n : Printing only first  50 k-points.
              ixc          11
           jdtset        1    2
              kpt      0.00000000E+00  0.00000000E+00  0.00000000E+00
                       1.66666667E-01  0.00000000E+00  0.00000000E+00
                       3.33333333E-01  0.00000000E+00  0.00000000E+00
                       5.00000000E-01  0.00000000E+00  0.00000000E+00
                       0.00000000E+00  1.66666667E-01  0.00000000E+00
                       1.66666667E-01  1.66666667E-01  0.00000000E+00
                       3.33333333E-01  1.66666667E-01  0.00000000E+00
                       5.00000000E-01  1.66666667E-01  0.00000000E+00
                      -3.33333333E-01  1.66666667E-01  0.00000000E+00
                      -1.66666667E-01  1.66666667E-01  0.00000000E+00
                       0.00000000E+00  3.33333333E-01  0.00000000E+00
                       1.66666667E-01  3.33333333E-01  0.00000000E+00
                       3.33333333E-01  3.33333333E-01  0.00000000E+00
                       5.00000000E-01  3.33333333E-01  0.00000000E+00
                      -3.33333333E-01  3.33333333E-01  0.00000000E+00
                      -1.66666667E-01  3.33333333E-01  0.00000000E+00
                       0.00000000E+00  5.00000000E-01  0.00000000E+00
                       1.66666667E-01  5.00000000E-01  0.00000000E+00
                       3.33333333E-01  5.00000000E-01  0.00000000E+00
                       5.00000000E-01  5.00000000E-01  0.00000000E+00
                       0.00000000E+00  0.00000000E+00  1.66666667E-01
                       1.66666667E-01  0.00000000E+00  1.66666667E-01
                       3.33333333E-01  0.00000000E+00  1.66666667E-01
                       5.00000000E-01  0.00000000E+00  1.66666667E-01
                      -3.33333333E-01  0.00000000E+00  1.66666667E-01
                      -1.66666667E-01  0.00000000E+00  1.66666667E-01
                       0.00000000E+00  1.66666667E-01  1.66666667E-01
                       1.66666667E-01  1.66666667E-01  1.66666667E-01
                       3.33333333E-01  1.66666667E-01  1.66666667E-01
                       5.00000000E-01  1.66666667E-01  1.66666667E-01
                      -3.33333333E-01  1.66666667E-01  1.66666667E-01
                      -1.66666667E-01  1.66666667E-01  1.66666667E-01
                       0.00000000E+00  3.33333333E-01  1.66666667E-01
                       1.66666667E-01  3.33333333E-01  1.66666667E-01
                       3.33333333E-01  3.33333333E-01  1.66666667E-01
                       5.00000000E-01  3.33333333E-01  1.66666667E-01
                      -3.33333333E-01  3.33333333E-01  1.66666667E-01
                      -1.66666667E-01  3.33333333E-01  1.66666667E-01
                       0.00000000E+00  5.00000000E-01  1.66666667E-01
                       1.66666667E-01  5.00000000E-01  1.66666667E-01
                       3.33333333E-01  5.00000000E-01  1.66666667E-01
                       5.00000000E-01  5.00000000E-01  1.66666667E-01
                      -3.33333333E-01  5.00000000E-01  1.66666667E-01
                      -1.66666667E-01  5.00000000E-01  1.66666667E-01
                       0.00000000E+00 -3.33333333E-01  1.66666667E-01
                       1.66666667E-01 -3.33333333E-01  1.66666667E-01
                       3.33333333E-01 -3.33333333E-01  1.66666667E-01
                       5.00000000E-01 -3.33333333E-01  1.66666667E-01
                      -3.33333333E-01 -3.33333333E-01  1.66666667E-01
                      -1.66666667E-01 -3.33333333E-01  1.66666667E-01
                       outvar_i_n : Printing only first  50 k-points.
           kptopt           2
         kptrlatt        6    0    0      0    6    0      0    0    6
          kptrlen      5.75486009E+01
P           mkmem           4
            natom          12
            nband          48
           ndtset           2
            ngfft          45      45      45
             nkpt         112
            nstep         100
             nsym           2
           ntypat           2
              occ      2.000000  2.000000  2.000000  2.000000  2.000000  2.000000
                       2.000000  2.000000  2.000000  2.000000  2.000000  2.000000
                       2.000000  2.000000  2.000000  2.000000  2.000000  2.000000
                       2.000000  2.000000  2.000000  2.000000  2.000000  2.000000
                       2.000000  2.000000  2.000000  2.000000  2.000000  2.000000
                       2.000000  2.000000  2.000000  2.000000  2.000000  2.000000
                       2.000000  2.000000  2.000000  2.000000  2.000000  2.000000
                       2.000000  2.000000  2.000000  2.000000  2.000000  2.000000
        pawecutdg      2.50000000E+01 Hartree
         pawxcdev           0
            rfdir1          1       1       1
            rfdir2          0       0       0
          spgroup           3
        symmorphi           0
           symrel      1  0  0   0  1  0   0  0  1      -1  0  0   0  1  0   0  0 -1
           toldfe      1.00000000E-10 Hartree
           tolmxf      1.00000000E-05
           tsmear      4.00000000E-02 Hartree
            typat      1  1  1  1  2  2  2  2  2  2  2  2
              wtk        0.00463    0.00926    0.00926    0.00463    0.00926    0.00926
                         0.00926    0.00926    0.00926    0.00926    0.00926    0.00926
                         0.00926    0.00926    0.00926    0.00926    0.00463    0.00926
                         0.00926    0.00463    0.00926    0.00926    0.00926    0.00926
                         0.00926    0.00926    0.00926    0.00926    0.00926    0.00926
                         0.00926    0.00926    0.00926    0.00926    0.00926    0.00926
                         0.00926    0.00926    0.00926    0.00926    0.00926    0.00926
                         0.00926    0.00926    0.00926    0.00926    0.00926    0.00926
                         0.00926    0.00926
                       outvars : Printing only first  50 k-points.
           xangst      0.0000000000E+00  8.3736720864E-03  0.0000000000E+00
                       2.5377840000E+00  2.5461554388E+00  0.0000000000E+00
                       0.0000000000E+00  2.5461689906E+00  2.5377840000E+00
                       2.5377840000E+00  8.3760068477E-03  2.5377840000E+00
                       1.2753305103E+00  1.2688525121E+00  1.0233146520E+00
                       1.2623916693E+00  1.2686420790E+00  3.5611034738E+00
                       3.8129640197E+00  3.8064837375E+00  1.0233264273E+00
                       3.8004564497E+00  3.8067100063E+00  3.5611181422E+00
                       1.2751115503E+00  3.8067100063E+00  1.5144498578E+00
                       1.2626039803E+00  3.8064837375E+00  4.0522415727E+00
                       3.8131763307E+00  1.2686420790E+00  1.5144645262E+00
                       3.8002374897E+00  1.2688525121E+00  4.0522533480E+00
            xcart      0.0000000000E+00  1.5823946970E-02  0.0000000000E+00
                       4.7957167444E+00  4.8115364712E+00  0.0000000000E+00
                       0.0000000000E+00  4.8115620803E+00  4.7957167444E+00
                       4.7957167444E+00  1.5828359029E-02  4.7957167444E+00
                       2.4100253933E+00  2.3977837509E+00  1.9337844401E+00
                       2.3855745274E+00  2.3973860900E+00  6.7295102964E+00
                       7.2054577517E+00  7.1932117931E+00  1.9338066922E+00
                       7.1818218699E+00  7.1936393792E+00  6.7295380156E+00
                       2.4096116189E+00  7.1936393792E+00  2.8618954732E+00
                       2.3859757371E+00  7.1932117931E+00  7.6576267966E+00
                       7.2058589614E+00  2.3973860900E+00  2.8619231925E+00
                       7.1814080955E+00  2.3977837509E+00  7.6576490488E+00
             xred      0.0000000000E+00  1.6498000000E-03  0.0000000000E+00
                       5.0000000000E-01  5.0164936000E-01  0.0000000000E+00
                       0.0000000000E+00  5.0165203000E-01  5.0000000000E-01
                       5.0000000000E-01  1.6502600000E-03  5.0000000000E-01
[...]
    5     -0.00000000367186     0.00000000340333     0.00000000759027
    6     -0.00000000777528     0.00000000791790    -0.00000000844121
    7      0.00000000750464     0.00000000121660     0.00000000512377
    8      0.00000000519920    -0.00000000601689    -0.00000000666172
    9     -0.00000000519920    -0.00000000601689     0.00000000666172
   10     -0.00000000750464     0.00000000121660    -0.00000000512377
   11      0.00000000777528     0.00000000791790     0.00000000844121
   12      0.00000000367186     0.00000000340333    -0.00000000759027
 frms,max,avg= 5.4224499E-09 9.0694656E-09   0.000E+00  9.700E-07  0.000E+00 h/b

 cartesian forces (eV/Angstrom) at end:
    1      0.00000000000000     0.00000012106532     0.00000000000000
    2      0.00000000000000    -0.00000046637063     0.00000000000000
    3      0.00000000000000    -0.00000029479073     0.00000000000000
    4      0.00000000000000    -0.00000003054475     0.00000000000000
    5     -0.00000018881481     0.00000017500627     0.00000039030725
    6     -0.00000039982113     0.00000040715482    -0.00000043406449
    7      0.00000038590395     0.00000006256013     0.00000026347482
    8      0.00000026735355    -0.00000030940082    -0.00000034255947
    9     -0.00000026735355    -0.00000030940082     0.00000034255947
   10     -0.00000038590395     0.00000006256013    -0.00000026347482
   11      0.00000039982113     0.00000040715482     0.00000043406449
   12      0.00000018881481     0.00000017500627    -0.00000039030725
 frms,max,avg= 2.7883356E-07 4.6637063E-07   0.000E+00  4.988E-05  0.000E+00 e/A
 length scales=  9.591433488838  9.591433488838  9.591433488838 bohr
              =  5.075568000000  5.075568000000  5.075568000000 angstroms
 prteigrs : about to open file o_DS2_EIG
 Fermi (or HOMO) energy (hartree) =   0.27713   Average Vxc (hartree)=  -0.44601
 Eigenvalues (hartree) for nkpt= 112  k points:
 kpt#   1, nband= 48, wtk=  0.00463, kpt=  0.0000  0.0000  0.0000 (reduced coord)
  -1.94369   -1.94303   -1.94300   -1.94299   -0.80523   -0.80523   -0.80489   -0.79314
  -0.79312   -0.79281   -0.79279   -0.79147   -0.79147   -0.78861   -0.78698   -0.78698
  -0.39505   -0.33819   -0.32893   -0.32892   -0.31889   -0.31582   -0.31581   -0.29681
   0.06030    0.06030    0.07167    0.09588    0.10258    0.10258    0.16423    0.16430
   0.16650    0.16657    0.17273    0.17273    0.22365    0.22370    0.22840    0.22846
   0.24954    0.24965    0.25531    0.25533    0.25952    0.26628    0.26634    0.27519
 prteigrs : prtvol=0 or 1, do not print more k-points.

--- !EnergyTerms
iteration_state     : {dtset: 2, }
comment             : Components of total free energy in Hartree
kinetic             :  1.46191768127605E+02
hartree             :  5.59171120818393E+01
xc                  : -9.09039918063456E+01
Ewald energy        : -2.70165706534360E+02
psp_core            :  1.49595106529080E+01
local_psp           : -2.05520277204420E+02
non_local_psp       : -9.11267660492970E+00
electric            : -1.33120625603365E-05
kohn_sham           : -3.58634261287704E+02
total_energy        : -3.58634274599766E+02
total_energy_eV     : -9.75893491148688E+03
band_energy         : -3.10955780187941E+01
...

Constant unreduced E calculation  - final values:
 (a. u.)
       E:   5.826366981E-15   4.285034152E-05   1.869987552E-12
       P:   3.178605486E-14   3.503743484E-04   1.219910720E-13

    ebar:   5.588321138E-14   4.109962007E-04   1.793586123E-11
    pbar:   3.831157552E-12   4.223044781E-02   1.470352388E-11

       e:   4.265353311E-14   3.136977926E-04   1.368976177E-11
       p:   2.924177073E-12   3.223289713E-02   1.122264142E-11

 (S.I.), that is V/m for E, and C/m^2 for P
-      E:   2.996038111E-03   2.203452970E+07   9.615861807E-01
       P:   1.818631547E-12   2.004658477E-02   6.979690085E-12

 Please check: COMMENT -
  As a rough estimate,
  to be below the critical field, the bandgap of your system
  should be larger than    0.07 eV.

 Cartesian components of stress tensor (hartree/bohr^3)
  sigma(1 1)= -1.72516883E-04  sigma(3 2)=  0.00000000E+00
  sigma(2 2)= -1.72629387E-04  sigma(3 1)= -9.20965111E-10
  sigma(3 3)= -4.75448891E-04  sigma(2 1)=  0.00000000E+00

-Cartesian components of stress tensor (GPa)         [Pressure=  8.0476E+00 GPa]
- sigma(1 1)= -5.07562107E+00  sigma(3 2)=  0.00000000E+00
- sigma(2 2)= -5.07893106E+00  sigma(3 1)= -2.70957245E-05
- sigma(3 3)= -1.39881870E+01  sigma(2 1)=  0.00000000E+00

== END DATASET(S) ==============================================================

 -outvars: echo values of variables after computation  --------
            acell      9.5914334888E+00  9.5914334888E+00  9.5914334888E+00 Bohr
              amu      1.78490000E+02  1.59994000E+01
         berryopt1         -1
         berryopt2          4
          chkprim           0
             ecut      2.50000000E+01 Hartree
           ecutsm      5.00000000E-01 Hartree
           efield      5.82636698E-15  4.28503415E-05  1.86998755E-12
           etotal1    -3.5863426155E+02
           etotal2    -3.5863427460E+02
            fcart1     0.0000000000E+00 -2.3890163940E-04  4.4116299336E-24
                       0.0000000000E+00 -2.3791662672E-04  4.4116299336E-24
                       0.0000000000E+00 -2.3784558291E-04  4.4116299336E-24
                       0.0000000000E+00 -2.3891240207E-04  4.4116299336E-24
                       2.6856558435E-05  1.1918874671E-04 -4.2671084185E-07
                      -2.6764219402E-05  1.1918961729E-04 -7.3898367713E-07
                       2.6820080529E-05  1.1922185473E-04 -5.1979995564E-07
                      -2.6773228718E-05  1.1918790683E-04 -6.2960603457E-07
                       2.6773228718E-05  1.1918790683E-04  6.2960603457E-07
                      -2.6820080529E-05  1.1922185473E-04  5.1979995564E-07
                       2.6764219402E-05  1.1918961729E-04  7.3898367713E-07
                      -2.6856558435E-05  1.1918874671E-04  4.2671084185E-07
            fcart2     3.4465858856E-26  2.3543458883E-09  0.0000000000E+00
                       3.4465858856E-26 -9.0694655984E-09  0.0000000000E+00
                       3.4465858856E-26 -5.7327674500E-09  0.0000000000E+00
                       3.4465858856E-26 -5.9400092213E-10  0.0000000000E+00
                      -3.6718637904E-09  3.4033303653E-09  7.5902682351E-09
                      -7.7752837804E-09  7.9179012183E-09 -8.4412111211E-09
                       7.5046375371E-09  1.2166010248E-09  5.1237699704E-09
                       5.1991992193E-09 -6.0168885673E-09 -6.6617215353E-09
                      -5.1991992193E-09 -6.0168885673E-09  6.6617215353E-09
                      -7.5046375371E-09  1.2166010248E-09 -5.1237699704E-09
                       7.7752837804E-09  7.9179012183E-09  8.4412111211E-09
                       3.6718637904E-09  3.4033303653E-09 -7.5902682351E-09
-          fftalg         512
           getwfk1          0
           getwfk2          1
           istwfk        1    0    0    1    0    0    0    0    0    0
                         0    0    0    0    0    0    1    0    0    1
                         0    0    0    0    0    0    0    0    0    0
                         0    0    0    0    0    0    0    0    0    0
                         0    0    0    0    0    0    0    0    0    0
                       outvar_i_n : Printing only first  50 k-points.
              ixc          11
           jdtset        1    2
              kpt      0.00000000E+00  0.00000000E+00  0.00000000E+00
                       1.66666667E-01  0.00000000E+00  0.00000000E+00
                       3.33333333E-01  0.00000000E+00  0.00000000E+00
                       5.00000000E-01  0.00000000E+00  0.00000000E+00
                       0.00000000E+00  1.66666667E-01  0.00000000E+00
                       1.66666667E-01  1.66666667E-01  0.00000000E+00
                       3.33333333E-01  1.66666667E-01  0.00000000E+00
                       5.00000000E-01  1.66666667E-01  0.00000000E+00
                      -3.33333333E-01  1.66666667E-01  0.00000000E+00
                      -1.66666667E-01  1.66666667E-01  0.00000000E+00
                       0.00000000E+00  3.33333333E-01  0.00000000E+00
                       1.66666667E-01  3.33333333E-01  0.00000000E+00
                       3.33333333E-01  3.33333333E-01  0.00000000E+00
                       5.00000000E-01  3.33333333E-01  0.00000000E+00
                      -3.33333333E-01  3.33333333E-01  0.00000000E+00
                      -1.66666667E-01  3.33333333E-01  0.00000000E+00
                       0.00000000E+00  5.00000000E-01  0.00000000E+00
                       1.66666667E-01  5.00000000E-01  0.00000000E+00
                       3.33333333E-01  5.00000000E-01  0.00000000E+00
                       5.00000000E-01  5.00000000E-01  0.00000000E+00
                       0.00000000E+00  0.00000000E+00  1.66666667E-01
                       1.66666667E-01  0.00000000E+00  1.66666667E-01
                       3.33333333E-01  0.00000000E+00  1.66666667E-01
                       5.00000000E-01  0.00000000E+00  1.66666667E-01
                      -3.33333333E-01  0.00000000E+00  1.66666667E-01
                      -1.66666667E-01  0.00000000E+00  1.66666667E-01
                       0.00000000E+00  1.66666667E-01  1.66666667E-01
                       1.66666667E-01  1.66666667E-01  1.66666667E-01
                       3.33333333E-01  1.66666667E-01  1.66666667E-01
                       5.00000000E-01  1.66666667E-01  1.66666667E-01
                      -3.33333333E-01  1.66666667E-01  1.66666667E-01
                      -1.66666667E-01  1.66666667E-01  1.66666667E-01
                       0.00000000E+00  3.33333333E-01  1.66666667E-01
                       1.66666667E-01  3.33333333E-01  1.66666667E-01
                       3.33333333E-01  3.33333333E-01  1.66666667E-01
                       5.00000000E-01  3.33333333E-01  1.66666667E-01
                      -3.33333333E-01  3.33333333E-01  1.66666667E-01
                      -1.66666667E-01  3.33333333E-01  1.66666667E-01
                       0.00000000E+00  5.00000000E-01  1.66666667E-01
                       1.66666667E-01  5.00000000E-01  1.66666667E-01
                       3.33333333E-01  5.00000000E-01  1.66666667E-01
                       5.00000000E-01  5.00000000E-01  1.66666667E-01
                      -3.33333333E-01  5.00000000E-01  1.66666667E-01
                      -1.66666667E-01  5.00000000E-01  1.66666667E-01
                       0.00000000E+00 -3.33333333E-01  1.66666667E-01
                       1.66666667E-01 -3.33333333E-01  1.66666667E-01
                       3.33333333E-01 -3.33333333E-01  1.66666667E-01
                       5.00000000E-01 -3.33333333E-01  1.66666667E-01
                      -3.33333333E-01 -3.33333333E-01  1.66666667E-01
                      -1.66666667E-01 -3.33333333E-01  1.66666667E-01
                       outvar_i_n : Printing only first  50 k-points.
           kptopt           2
         kptrlatt        6    0    0      0    6    0      0    0    6
          kptrlen      5.75486009E+01
P           mkmem           4
            natom          12
            nband          48
           ndtset           2
            ngfft          45      45      45
             nkpt         112
            nstep         100
             nsym           2
           ntypat           2
              occ      2.000000  2.000000  2.000000  2.000000  2.000000  2.000000
                       2.000000  2.000000  2.000000  2.000000  2.000000  2.000000
                       2.000000  2.000000  2.000000  2.000000  2.000000  2.000000
                       2.000000  2.000000  2.000000  2.000000  2.000000  2.000000
                       2.000000  2.000000  2.000000  2.000000  2.000000  2.000000
                       2.000000  2.000000  2.000000  2.000000  2.000000  2.000000
                       2.000000  2.000000  2.000000  2.000000  2.000000  2.000000
                       2.000000  2.000000  2.000000  2.000000  2.000000  2.000000
        pawecutdg      2.50000000E+01 Hartree
         pawxcdev           0
            rfdir1          1       1       1
            rfdir2          0       0       0
          spgroup           3
           strten1    -1.7252481805E-04 -1.7260805682E-04 -4.7545444091E-04
                       0.0000000000E+00 -9.8176088757E-10  0.0000000000E+00
           strten2    -1.7251688282E-04 -1.7262938690E-04 -4.7544889095E-04
                       0.0000000000E+00 -9.2096511070E-10  0.0000000000E+00
        symmorphi           0
           symrel      1  0  0   0  1  0   0  0  1      -1  0  0   0  1  0   0  0 -1
           toldfe      1.00000000E-10 Hartree
           tolmxf      1.00000000E-05
           tsmear      4.00000000E-02 Hartree
            typat      1  1  1  1  2  2  2  2  2  2  2  2
              wtk        0.00463    0.00926    0.00926    0.00463    0.00926    0.00926
                         0.00926    0.00926    0.00926    0.00926    0.00926    0.00926
                         0.00926    0.00926    0.00926    0.00926    0.00463    0.00926
                         0.00926    0.00463    0.00926    0.00926    0.00926    0.00926
                         0.00926    0.00926    0.00926    0.00926    0.00926    0.00926
                         0.00926    0.00926    0.00926    0.00926    0.00926    0.00926
                         0.00926    0.00926    0.00926    0.00926    0.00926    0.00926
                         0.00926    0.00926    0.00926    0.00926    0.00926    0.00926
                         0.00926    0.00926
                       outvars : Printing only first  50 k-points.
           xangst      0.0000000000E+00  8.3736720864E-03  0.0000000000E+00
                       2.5377840000E+00  2.5461554388E+00  0.0000000000E+00
                       0.0000000000E+00  2.5461689906E+00  2.5377840000E+00
                       2.5377840000E+00  8.3760068477E-03  2.5377840000E+00
                       1.2753305103E+00  1.2688525121E+00  1.0233146520E+00
                       1.2623916693E+00  1.2686420790E+00  3.5611034738E+00
                       3.8129640197E+00  3.8064837375E+00  1.0233264273E+00
                       3.8004564497E+00  3.8067100063E+00  3.5611181422E+00
                       1.2751115503E+00  3.8067100063E+00  1.5144498578E+00
                       1.2626039803E+00  3.8064837375E+00  4.0522415727E+00
                       3.8131763307E+00  1.2686420790E+00  1.5144645262E+00
                       3.8002374897E+00  1.2688525121E+00  4.0522533480E+00
            xcart      0.0000000000E+00  1.5823946970E-02  0.0000000000E+00
                       4.7957167444E+00  4.8115364712E+00  0.0000000000E+00
                       0.0000000000E+00  4.8115620803E+00  4.7957167444E+00
                       4.7957167444E+00  1.5828359029E-02  4.7957167444E+00
                       2.4100253933E+00  2.3977837509E+00  1.9337844401E+00
                       2.3855745274E+00  2.3973860900E+00  6.7295102964E+00
                       7.2054577517E+00  7.1932117931E+00  1.9338066922E+00
                       7.1818218699E+00  7.1936393792E+00  6.7295380156E+00
                       2.4096116189E+00  7.1936393792E+00  2.8618954732E+00
                       2.3859757371E+00  7.1932117931E+00  7.6576267966E+00
                       7.2058589614E+00  2.3973860900E+00  2.8619231925E+00
                       7.1814080955E+00  2.3977837509E+00  7.6576490488E+00
             xred      0.0000000000E+00  1.6498000000E-03  0.0000000000E+00
                       5.0000000000E-01  5.0164936000E-01  0.0000000000E+00
                       0.0000000000E+00  5.0165203000E-01  5.0000000000E-01
                       5.0000000000E-01  1.6502600000E-03  5.0000000000E-01
                       2.5126853000E-01  2.4999222000E-01  2.0161579000E-01
                       2.4871929000E-01  2.4995076000E-01  7.0161674000E-01
                       7.5123888000E-01  7.4996212000E-01  2.0161811000E-01
                       7.4877461000E-01  7.5000670000E-01  7.0161963000E-01
                       2.5122539000E-01  7.5000670000E-01  2.9838037000E-01
                       2.4876112000E-01  7.4996212000E-01  7.9838189000E-01
                       7.5128071000E-01  2.4995076000E-01  2.9838326000E-01
                       7.4873147000E-01  2.4999222000E-01  7.9838421000E-01
            znucl       72.00000    8.00000

- Timing analysis has been suppressed with timopt=0

 Suggested references for the acknowledgment of ABINIT usage.

 Calculation completed.
.Delivered   0 WARNINGs and   2 COMMENTs to log file.