.Version 9.4.2 of ABINIT

 ABINIT is a project of the Universite Catholique de Louvain,
 Corning Inc. and other collaborators, see ~abinit/doc/developers/contributors.txt .
 acknowledgments of the ABINIT effort.

.Starting date : Tue 22 Jun 2021.
- ( at 08h40 )

- input  file    -> /p/work1/jiahaoz/HfO4/CUBIC_ITERATE/itertwo/P-0.30/scf10
- output file    -> /p/work1/jiahaoz/HfO4/CUBIC_ITERATE/itertwo/P-0.30/scf10.abo
- root for input  files -> i
- root for output files -> o

 DATASET    1 : space group P1 (#  1); Bravais aP (primitive triclinic)
     intxc =       0    ionmov =       0      iscf =       7    lmnmax =       8
     lnmax =       8     mgfft =      45  mpssoang =       4    mqgrid =    3001
     natom =      12  nloc_mem =       1    nspden =       1   nspinor =       1
    nsppol =       1      nsym =       1    n1xccc =    2501    ntypat =       2
    occopt =       1   xclevel =       2
-    mband =          48        mffmem =           1         mkmem =           4
       mpw =        5294          nfft =       91125          nkpt =         112
  Rough estimation (10% accuracy) of disk space for files :

 DATASET    2 : space group P1 (#  1); Bravais aP (primitive triclinic)
     intxc =       0    ionmov =       0      iscf =       7    lmnmax =       8
     lnmax =       8     mgfft =      45  mpssoang =       4    mqgrid =    3001
     natom =      12  nloc_mem =       1    nspden =       1   nspinor =       1
    nsppol =       1      nsym =       1    n1xccc =    2501    ntypat =       2
    occopt =       1   xclevel =       2
-    mband =          48        mffmem =           1         mkmem =           4
       mpw =        5294          nfft =       91125          nkpt =         112
  Rough estimation (10% accuracy) of disk space for files :

------------- Echo of variables that govern the present computation ------------
-
- outvars: echo of selected default values
-   iomode0 =  0 , fftalg0 =512 , wfoptalg0 =  0
-
- outvars: echo of global parameters not present in the input file
-  max_nthreads =    0
-
 -outvars: echo values of preprocessed input variables --------
            acell      9.5914334888E+00  9.5914334888E+00  9.5914334888E+00 Bohr
              amu      1.78490000E+02  1.59994000E+01
         berryopt1         -1
         berryopt2          4
          chkprim           0
             ecut      2.50000000E+01 Hartree
           ecutsm      5.00000000E-01 Hartree
           efield     -9.28481079E-06 -2.58828327E-03  5.23014782E-07
-          fftalg         512
           getwfk1          0
           getwfk2          1
           istwfk        1    0    0    1    0    0    0    0    0    0
                         0    0    0    0    0    0    1    0    0    1
                         0    0    0    0    0    0    0    0    0    0
                         0    0    0    0    0    0    0    0    0    0
                         0    0    0    0    0    0    0    0    0    0
                       outvar_i_n : Printing only first  50 k-points.
              ixc          11
           jdtset        1    2
              kpt      0.00000000E+00  0.00000000E+00  0.00000000E+00
                       1.66666667E-01  0.00000000E+00  0.00000000E+00
                       3.33333333E-01  0.00000000E+00  0.00000000E+00
                       5.00000000E-01  0.00000000E+00  0.00000000E+00
                       0.00000000E+00  1.66666667E-01  0.00000000E+00
                       1.66666667E-01  1.66666667E-01  0.00000000E+00
                       3.33333333E-01  1.66666667E-01  0.00000000E+00
                       5.00000000E-01  1.66666667E-01  0.00000000E+00
                      -3.33333333E-01  1.66666667E-01  0.00000000E+00
                      -1.66666667E-01  1.66666667E-01  0.00000000E+00
                       0.00000000E+00  3.33333333E-01  0.00000000E+00
                       1.66666667E-01  3.33333333E-01  0.00000000E+00
                       3.33333333E-01  3.33333333E-01  0.00000000E+00
                       5.00000000E-01  3.33333333E-01  0.00000000E+00
                      -3.33333333E-01  3.33333333E-01  0.00000000E+00
                      -1.66666667E-01  3.33333333E-01  0.00000000E+00
                       0.00000000E+00  5.00000000E-01  0.00000000E+00
                       1.66666667E-01  5.00000000E-01  0.00000000E+00
                       3.33333333E-01  5.00000000E-01  0.00000000E+00
                       5.00000000E-01  5.00000000E-01  0.00000000E+00
                       0.00000000E+00  0.00000000E+00  1.66666667E-01
                       1.66666667E-01  0.00000000E+00  1.66666667E-01
                       3.33333333E-01  0.00000000E+00  1.66666667E-01
                       5.00000000E-01  0.00000000E+00  1.66666667E-01
                      -3.33333333E-01  0.00000000E+00  1.66666667E-01
                      -1.66666667E-01  0.00000000E+00  1.66666667E-01
                       0.00000000E+00  1.66666667E-01  1.66666667E-01
                       1.66666667E-01  1.66666667E-01  1.66666667E-01
                       3.33333333E-01  1.66666667E-01  1.66666667E-01
                       5.00000000E-01  1.66666667E-01  1.66666667E-01
                      -3.33333333E-01  1.66666667E-01  1.66666667E-01
                      -1.66666667E-01  1.66666667E-01  1.66666667E-01
                       0.00000000E+00  3.33333333E-01  1.66666667E-01
                       1.66666667E-01  3.33333333E-01  1.66666667E-01
                       3.33333333E-01  3.33333333E-01  1.66666667E-01
                       5.00000000E-01  3.33333333E-01  1.66666667E-01
                      -3.33333333E-01  3.33333333E-01  1.66666667E-01
                      -1.66666667E-01  3.33333333E-01  1.66666667E-01
                       0.00000000E+00  5.00000000E-01  1.66666667E-01
                       1.66666667E-01  5.00000000E-01  1.66666667E-01
                       3.33333333E-01  5.00000000E-01  1.66666667E-01
                       5.00000000E-01  5.00000000E-01  1.66666667E-01
                      -3.33333333E-01  5.00000000E-01  1.66666667E-01
                      -1.66666667E-01  5.00000000E-01  1.66666667E-01
                       0.00000000E+00 -3.33333333E-01  1.66666667E-01
                       1.66666667E-01 -3.33333333E-01  1.66666667E-01
                       3.33333333E-01 -3.33333333E-01  1.66666667E-01
                       5.00000000E-01 -3.33333333E-01  1.66666667E-01
                      -3.33333333E-01 -3.33333333E-01  1.66666667E-01
                      -1.66666667E-01 -3.33333333E-01  1.66666667E-01
                       outvar_i_n : Printing only first  50 k-points.
           kptopt           2
         kptrlatt        6    0    0      0    6    0      0    0    6
          kptrlen      5.75486009E+01
P           mkmem           4
            natom          12
            nband          48
           ndtset           2
            ngfft          45      45      45
             nkpt         112
            nstep         100
             nsym           1
           ntypat           2
              occ      2.000000  2.000000  2.000000  2.000000  2.000000  2.000000
                       2.000000  2.000000  2.000000  2.000000  2.000000  2.000000
                       2.000000  2.000000  2.000000  2.000000  2.000000  2.000000
                       2.000000  2.000000  2.000000  2.000000  2.000000  2.000000
                       2.000000  2.000000  2.000000  2.000000  2.000000  2.000000
                       2.000000  2.000000  2.000000  2.000000  2.000000  2.000000
                       2.000000  2.000000  2.000000  2.000000  2.000000  2.000000
                       2.000000  2.000000  2.000000  2.000000  2.000000  2.000000
        pawecutdg      2.50000000E+01 Hartree
         pawxcdev           0
            rfdir1          1       1       1
            rfdir2          0       0       0
          spgroup           1
        symmorphi           0
           toldfe      1.00000000E-10 Hartree
           tolmxf      1.00000000E-05
           tsmear      4.00000000E-02 Hartree
            typat      1  1  1  1  2  2  2  2  2  2  2  2
              wtk        0.00463    0.00926    0.00926    0.00463    0.00926    0.00926
                         0.00926    0.00926    0.00926    0.00926    0.00926    0.00926
                         0.00926    0.00926    0.00926    0.00926    0.00463    0.00926
                         0.00926    0.00463    0.00926    0.00926    0.00926    0.00926
                         0.00926    0.00926    0.00926    0.00926    0.00926    0.00926
                         0.00926    0.00926    0.00926    0.00926    0.00926    0.00926
                         0.00926    0.00926    0.00926    0.00926    0.00926    0.00926
                         0.00926    0.00926    0.00926    0.00926    0.00926    0.00926
                         0.00926    0.00926
                       outvars : Printing only first  50 k-points.
           xangst      2.3199010320E-01 -3.0588671887E-02 -6.7514342689E-02
                       2.6273600096E+00  2.5073644968E+00 -3.5173158381E-01
                       2.3189057131E-01  2.5072699390E+00  2.1860470868E+00
                       2.6273018436E+00 -3.0469954352E-02  2.4703336095E+00
                       1.5947938152E+00  1.2760868714E+00  9.5450578571E-01
                       1.2643878902E+00  1.2758180693E+00  3.4923523167E+00
                       4.2604464983E+00  3.3808276731E+00  5.2047589701E-01
                       3.6751198660E+00  3.3813675613E+00  3.0584028250E+00
                       1.5946859087E+00  3.8136995710E+00  1.1641570453E+00
                       1.2645604595E+00  3.8134361998E+00  3.7018039034E+00
                       4.2610724174E+00  8.4215595629E-01  1.5986574899E+00
                       3.6743721841E+00  8.4262925301E-01  4.1365712214E+00
            xcart      4.3839776059E-01 -5.7804212636E-02 -1.2758361772E-01
                       4.9649908706E+00  4.7382322143E+00 -6.6467636569E-01
                       4.3820967258E-01  4.7380535259E+00  4.1310303077E+00
                       4.9648809528E+00 -5.7579869006E-02  4.6682539788E+00
                       3.0137235492E+00  2.4114547088E+00  1.8037545272E+00
                       2.3893468382E+00  2.4109467464E+00  6.5995894381E+00
                       8.0510770857E+00  6.3888384047E+00  9.8355690411E-01
                       6.9449700522E+00  6.3898586455E+00  5.7795437433E+00
                       3.0135196353E+00  7.2068477423E+00  2.1999379912E+00
                       2.3896729470E+00  7.2063500428E+00  6.9953955751E+00
                       8.0522599013E+00  1.5914441186E+00  3.0210248361E+00
                       6.9435571382E+00  1.5923385197E+00  7.8169867376E+00
             xred      4.5707220000E-02 -6.0266500000E-03 -1.3301830000E-02
                       5.1764847000E-01  4.9400668000E-01 -6.9298960000E-02
                       4.5687610000E-02  4.9398805000E-01  4.3069999000E-01
                       5.1763701000E-01 -6.0032600000E-03  4.8671077000E-01
                       3.1420992000E-01  2.5141755000E-01  1.8805891000E-01
[...]
    4     -0.00000021544334    -0.00000019901783    -0.00000004078164
    5     -0.00000104159086    -0.00000059805209    -0.00000088453328
    6      0.00000088754415    -0.00000061812363    -0.00000079239161
    7      0.00000012686818     0.00000160584089     0.00000022827054
    8     -0.00000014754268     0.00000165890978     0.00000073897253
    9     -0.00000099673845    -0.00000047900585     0.00000071094384
   10      0.00000087047252    -0.00000049531963     0.00000068244209
   11      0.00000023694994    -0.00000020230959    -0.00000040075177
   12     -0.00000024599566    -0.00000026634937    -0.00000029390340
 frms,max,avg= 6.2465526E-07 1.6589098E-06  -2.843E-05 -5.210E-07  1.245E-06 h/b

 cartesian forces (eV/Angstrom) at end:
    1      0.00001909728864    -0.00000627580007    -0.00000293530325
    2     -0.00000636164124    -0.00000897548958     0.00000235101705
    3      0.00001428542284    -0.00000565551565     0.00000324448835
    4     -0.00001107854080    -0.00001023390751    -0.00000209707620
    5     -0.00005356075116    -0.00003075307232    -0.00004548452630
    6      0.00004563935145    -0.00003178519252    -0.00004074641120
    7      0.00000652382369     0.00008257565154     0.00001173814189
    8     -0.00000758694905     0.00008530456341     0.00003799949217
    9     -0.00005125434742    -0.00002463146911     0.00003655819882
   10      0.00004476149295    -0.00002547035735     0.00003509258037
   11      0.00001218445472    -0.00001040317645    -0.00002060748270
   12     -0.00001264960463    -0.00001369623439    -0.00001511311899
 frms,max,avg= 3.2121062E-05 8.5304563E-05  -1.462E-03 -2.679E-05  6.400E-05 e/A
 length scales=  9.591433488838  9.591433488838  9.591433488838 bohr
              =  5.075568000000  5.075568000000  5.075568000000 angstroms
 prteigrs : about to open file o_DS2_EIG
 Fermi (or HOMO) energy (hartree) =   0.28084   Average Vxc (hartree)=  -0.44564
 Eigenvalues (hartree) for nkpt= 112  k points:
 kpt#   1, nband= 48, wtk=  0.00463, kpt=  0.0000  0.0000  0.0000 (reduced coord)
  -1.94237   -1.94163   -1.94157   -1.94154   -0.80633   -0.80553   -0.80538   -0.79492
  -0.79261   -0.79238   -0.79195   -0.79188   -0.79157   -0.78743   -0.78701   -0.78640
  -0.39844   -0.34470   -0.34154   -0.33639   -0.31609   -0.31321   -0.31185   -0.30548
   0.06444    0.06491    0.07494    0.09591    0.10329    0.10397    0.15940    0.15977
   0.16054    0.16712    0.17570    0.18708    0.19459    0.20280    0.21773    0.22263
   0.22747    0.23507    0.23686    0.23763    0.25020    0.26424    0.28047    0.28084
 prteigrs : prtvol=0 or 1, do not print more k-points.

--- !EnergyTerms
iteration_state     : {dtset: 2, }
comment             : Components of total free energy in Hartree
kinetic             :  1.46433639126304E+02
hartree             :  5.67216370172255E+01
xc                  : -9.09616802099045E+01
Ewald energy        : -2.69147806671560E+02
psp_core            :  1.49595106529080E+01
local_psp           : -2.07496634642330E+02
non_local_psp       : -9.14236841868261E+00
electric            :  1.06224237663514E-02
kohn_sham           : -3.58633703146040E+02
total_energy        : -3.58623080722274E+02
total_energy_eV     : -9.75863031058956E+03
band_energy         : -3.13228436045625E+01
...

Constant unreduced E calculation  - final values:
 (a. u.)
       E:  -9.284810787E-06  -2.588283272E-03   5.230147815E-07
       P:  -9.221053441E-06   4.754177903E-03  -3.963491585E-06

    ebar:  -8.905464512E-05  -2.482534686E-02   5.016461491E-06
    pbar:  -1.111409034E-03   5.730187234E-01  -4.777176905E-04

       e:  -6.797202881E-05  -1.894824453E-02   3.828874558E-06
       p:  -8.482963105E-04   4.373634315E-01  -3.646237721E-04

 (S.I.), that is V/m for E, and C/m^2 for P
-      E:  -4.774441270E+06  -1.330948660E+09   2.689449915E+05
       P:  -5.275803732E-04   2.720091548E-01  -2.267702257E-04

 Please check: COMMENT -
  As a rough estimate,
  to be below the critical field, the bandgap of your system
  should be larger than    4.05 eV.

 Cartesian components of stress tensor (hartree/bohr^3)
  sigma(1 1)= -2.65232005E-04  sigma(3 2)=  1.01748422E-07
  sigma(2 2)= -2.86736057E-04  sigma(3 1)=  1.36041114E-09
  sigma(3 3)= -6.42982230E-04  sigma(2 1)=  1.97747724E-07

-Cartesian components of stress tensor (GPa)         [Pressure=  1.1719E+01 GPa]
- sigma(1 1)= -7.80339369E+00  sigma(3 2)=  2.99354141E-03
- sigma(2 2)= -8.43606462E+00  sigma(3 1)=  4.00246707E-05
- sigma(3 3)= -1.89171871E+01  sigma(2 1)=  5.81793792E-03

== END DATASET(S) ==============================================================

 -outvars: echo values of variables after computation  --------
            acell      9.5914334888E+00  9.5914334888E+00  9.5914334888E+00 Bohr
              amu      1.78490000E+02  1.59994000E+01
         berryopt1         -1
         berryopt2          4
          chkprim           0
             ecut      2.50000000E+01 Hartree
           ecutsm      5.00000000E-01 Hartree
           efield     -9.28481079E-06 -2.58828327E-03  5.23014782E-07
           etotal1    -3.5863464064E+02
           etotal2    -3.5862308072E+02
            fcart1    -5.5799236246E-04  1.4142626321E-02 -4.4392459217E-06
                       6.6283349665E-04  1.4145470809E-02 -5.5101734256E-06
                      -5.6016876850E-04  1.4143823817E-02 -8.7110945510E-07
                       6.6068767714E-04  1.4143364639E-02 -4.4121974516E-07
                      -6.3114281244E-04 -6.9108791152E-03  6.8814764956E-04
                       5.8174650355E-04 -6.9054682942E-03  6.8451024630E-04
                      -2.0758931991E-03 -7.2433913718E-03  9.6707377863E-04
                       2.0222639697E-03 -7.2287394693E-03  9.7649179671E-04
                      -6.3147116589E-04 -6.9132615142E-03 -6.8504903989E-04
                       5.8183998909E-04 -6.9078035428E-03 -6.8110967553E-04
                      -2.0756976259E-03 -7.2398532174E-03 -9.6485143133E-04
                       2.0229942982E-03 -7.2258890624E-03 -9.7395157590E-04
            fcart2     3.7138316623E-07 -1.2204489043E-07 -5.7082564678E-08
                      -1.2371423550E-07 -1.7454549707E-07  4.5720006239E-08
                       2.7780726706E-07 -1.0998227810E-07  6.3095258026E-08
                      -2.1544333529E-07 -1.9901783158E-07 -4.0781642565E-08
                      -1.0415908627E-06 -5.9805208905E-07 -8.8453328159E-07
                       8.8754415160E-07 -6.1812363302E-07 -7.9239160534E-07
                       1.2686818244E-07  1.6058408865E-06  2.2827053526E-07
                      -1.4754268072E-07  1.6589097775E-06  7.3897253063E-07
                      -9.9673844726E-07 -4.7900585051E-07  7.1094383524E-07
                       8.7047252047E-07 -4.9531963078E-07  6.8244209180E-07
                       2.3694993866E-07 -2.0230958857E-07 -4.0075176721E-07
                      -2.4599566499E-07 -2.6634937489E-07 -2.9390339582E-07
-          fftalg         512
           getwfk1          0
           getwfk2          1
           istwfk        1    0    0    1    0    0    0    0    0    0
                         0    0    0    0    0    0    1    0    0    1
                         0    0    0    0    0    0    0    0    0    0
                         0    0    0    0    0    0    0    0    0    0
                         0    0    0    0    0    0    0    0    0    0
                       outvar_i_n : Printing only first  50 k-points.
              ixc          11
           jdtset        1    2
              kpt      0.00000000E+00  0.00000000E+00  0.00000000E+00
                       1.66666667E-01  0.00000000E+00  0.00000000E+00
                       3.33333333E-01  0.00000000E+00  0.00000000E+00
                       5.00000000E-01  0.00000000E+00  0.00000000E+00
                       0.00000000E+00  1.66666667E-01  0.00000000E+00
                       1.66666667E-01  1.66666667E-01  0.00000000E+00
                       3.33333333E-01  1.66666667E-01  0.00000000E+00
                       5.00000000E-01  1.66666667E-01  0.00000000E+00
                      -3.33333333E-01  1.66666667E-01  0.00000000E+00
                      -1.66666667E-01  1.66666667E-01  0.00000000E+00
                       0.00000000E+00  3.33333333E-01  0.00000000E+00
                       1.66666667E-01  3.33333333E-01  0.00000000E+00
                       3.33333333E-01  3.33333333E-01  0.00000000E+00
                       5.00000000E-01  3.33333333E-01  0.00000000E+00
                      -3.33333333E-01  3.33333333E-01  0.00000000E+00
                      -1.66666667E-01  3.33333333E-01  0.00000000E+00
                       0.00000000E+00  5.00000000E-01  0.00000000E+00
                       1.66666667E-01  5.00000000E-01  0.00000000E+00
                       3.33333333E-01  5.00000000E-01  0.00000000E+00
                       5.00000000E-01  5.00000000E-01  0.00000000E+00
                       0.00000000E+00  0.00000000E+00  1.66666667E-01
                       1.66666667E-01  0.00000000E+00  1.66666667E-01
                       3.33333333E-01  0.00000000E+00  1.66666667E-01
                       5.00000000E-01  0.00000000E+00  1.66666667E-01
                      -3.33333333E-01  0.00000000E+00  1.66666667E-01
                      -1.66666667E-01  0.00000000E+00  1.66666667E-01
                       0.00000000E+00  1.66666667E-01  1.66666667E-01
                       1.66666667E-01  1.66666667E-01  1.66666667E-01
                       3.33333333E-01  1.66666667E-01  1.66666667E-01
                       5.00000000E-01  1.66666667E-01  1.66666667E-01
                      -3.33333333E-01  1.66666667E-01  1.66666667E-01
                      -1.66666667E-01  1.66666667E-01  1.66666667E-01
                       0.00000000E+00  3.33333333E-01  1.66666667E-01
                       1.66666667E-01  3.33333333E-01  1.66666667E-01
                       3.33333333E-01  3.33333333E-01  1.66666667E-01
                       5.00000000E-01  3.33333333E-01  1.66666667E-01
                      -3.33333333E-01  3.33333333E-01  1.66666667E-01
                      -1.66666667E-01  3.33333333E-01  1.66666667E-01
                       0.00000000E+00  5.00000000E-01  1.66666667E-01
                       1.66666667E-01  5.00000000E-01  1.66666667E-01
                       3.33333333E-01  5.00000000E-01  1.66666667E-01
                       5.00000000E-01  5.00000000E-01  1.66666667E-01
                      -3.33333333E-01  5.00000000E-01  1.66666667E-01
                      -1.66666667E-01  5.00000000E-01  1.66666667E-01
                       0.00000000E+00 -3.33333333E-01  1.66666667E-01
                       1.66666667E-01 -3.33333333E-01  1.66666667E-01
                       3.33333333E-01 -3.33333333E-01  1.66666667E-01
                       5.00000000E-01 -3.33333333E-01  1.66666667E-01
                      -3.33333333E-01 -3.33333333E-01  1.66666667E-01
                      -1.66666667E-01 -3.33333333E-01  1.66666667E-01
                       outvar_i_n : Printing only first  50 k-points.
           kptopt           2
         kptrlatt        6    0    0      0    6    0      0    0    6
          kptrlen      5.75486009E+01
P           mkmem           4
            natom          12
            nband          48
           ndtset           2
            ngfft          45      45      45
             nkpt         112
            nstep         100
             nsym           1
           ntypat           2
              occ      2.000000  2.000000  2.000000  2.000000  2.000000  2.000000
                       2.000000  2.000000  2.000000  2.000000  2.000000  2.000000
                       2.000000  2.000000  2.000000  2.000000  2.000000  2.000000
                       2.000000  2.000000  2.000000  2.000000  2.000000  2.000000
                       2.000000  2.000000  2.000000  2.000000  2.000000  2.000000
                       2.000000  2.000000  2.000000  2.000000  2.000000  2.000000
                       2.000000  2.000000  2.000000  2.000000  2.000000  2.000000
                       2.000000  2.000000  2.000000  2.000000  2.000000  2.000000
        pawecutdg      2.50000000E+01 Hartree
         pawxcdev           0
            rfdir1          1       1       1
            rfdir2          0       0       0
          spgroup           1
           strten1    -2.4988034891E-04 -3.1332183830E-04 -6.2845032271E-04
                       1.0882314394E-07  9.6891718440E-11  2.0203732915E-07
           strten2    -2.6523200513E-04 -2.8673605671E-04 -6.4298223037E-04
                       1.0174842161E-07  1.3604111354E-09  1.9774772400E-07
        symmorphi           0
           toldfe      1.00000000E-10 Hartree
           tolmxf      1.00000000E-05
           tsmear      4.00000000E-02 Hartree
            typat      1  1  1  1  2  2  2  2  2  2  2  2
              wtk        0.00463    0.00926    0.00926    0.00463    0.00926    0.00926
                         0.00926    0.00926    0.00926    0.00926    0.00926    0.00926
                         0.00926    0.00926    0.00926    0.00926    0.00463    0.00926
                         0.00926    0.00463    0.00926    0.00926    0.00926    0.00926
                         0.00926    0.00926    0.00926    0.00926    0.00926    0.00926
                         0.00926    0.00926    0.00926    0.00926    0.00926    0.00926
                         0.00926    0.00926    0.00926    0.00926    0.00926    0.00926
                         0.00926    0.00926    0.00926    0.00926    0.00926    0.00926
                         0.00926    0.00926
                       outvars : Printing only first  50 k-points.
           xangst      2.3199010320E-01 -3.0588671887E-02 -6.7514342689E-02
                       2.6273600096E+00  2.5073644968E+00 -3.5173158381E-01
                       2.3189057131E-01  2.5072699390E+00  2.1860470868E+00
                       2.6273018436E+00 -3.0469954352E-02  2.4703336095E+00
                       1.5947938152E+00  1.2760868714E+00  9.5450578571E-01
                       1.2643878902E+00  1.2758180693E+00  3.4923523167E+00
                       4.2604464983E+00  3.3808276731E+00  5.2047589701E-01
                       3.6751198660E+00  3.3813675613E+00  3.0584028250E+00
                       1.5946859087E+00  3.8136995710E+00  1.1641570453E+00
                       1.2645604595E+00  3.8134361998E+00  3.7018039034E+00
                       4.2610724174E+00  8.4215595629E-01  1.5986574899E+00
                       3.6743721841E+00  8.4262925301E-01  4.1365712214E+00
            xcart      4.3839776059E-01 -5.7804212636E-02 -1.2758361772E-01
                       4.9649908706E+00  4.7382322143E+00 -6.6467636569E-01
                       4.3820967258E-01  4.7380535259E+00  4.1310303077E+00
                       4.9648809528E+00 -5.7579869006E-02  4.6682539788E+00
                       3.0137235492E+00  2.4114547088E+00  1.8037545272E+00
                       2.3893468382E+00  2.4109467464E+00  6.5995894381E+00
                       8.0510770857E+00  6.3888384047E+00  9.8355690411E-01
                       6.9449700522E+00  6.3898586455E+00  5.7795437433E+00
                       3.0135196353E+00  7.2068477423E+00  2.1999379912E+00
                       2.3896729470E+00  7.2063500428E+00  6.9953955751E+00
                       8.0522599013E+00  1.5914441186E+00  3.0210248361E+00
                       6.9435571382E+00  1.5923385197E+00  7.8169867376E+00
             xred      4.5707220000E-02 -6.0266500000E-03 -1.3301830000E-02
                       5.1764847000E-01  4.9400668000E-01 -6.9298960000E-02
                       4.5687610000E-02  4.9398805000E-01  4.3069999000E-01
                       5.1763701000E-01 -6.0032600000E-03  4.8671077000E-01
                       3.1420992000E-01  2.5141755000E-01  1.8805891000E-01
                       2.4911259000E-01  2.5136459000E-01  6.8807123000E-01
                       8.3940290000E-01  6.6609839000E-01  1.0254535000E-01
                       7.2408051000E-01  6.6620476000E-01  6.0257351000E-01
                       3.1418866000E-01  7.5138380000E-01  2.2936488000E-01
                       2.4914659000E-01  7.5133191000E-01  7.2933786000E-01
                       8.3952622000E-01  1.6592349000E-01  3.1497115000E-01
                       7.2393320000E-01  1.6601674000E-01  8.1499671000E-01
            znucl       72.00000    8.00000

- Timing analysis has been suppressed with timopt=0

 Suggested references for the acknowledgment of ABINIT usage.

 Calculation completed.
.Delivered   0 WARNINGs and   2 COMMENTs to log file.