.Version 9.4.2 of ABINIT

 ABINIT is a project of the Universite Catholique de Louvain,
 Corning Inc. and other collaborators, see ~abinit/doc/developers/contributors.txt .
 acknowledgments of the ABINIT effort.

.Starting date : Wed 23 Jun 2021.
- ( at 01h23 )

- input  file    -> /p/work1/jiahaoz/HfO4/CUBIC_ITERATE/iterone/P0.24/scf10
- output file    -> /p/work1/jiahaoz/HfO4/CUBIC_ITERATE/iterone/P0.24/scf10.abo
- root for input  files -> i
- root for output files -> o

 DATASET    1 : space group P2 (#  3); Bravais mP (primitive monocl.)
     intxc =       0    ionmov =       0      iscf =       7    lmnmax =       8
     lnmax =       8     mgfft =      45  mpssoang =       4    mqgrid =    3001
     natom =      12  nloc_mem =       1    nspden =       1   nspinor =       1
    nsppol =       1      nsym =       2    n1xccc =    2501    ntypat =       2
    occopt =       1   xclevel =       2
-    mband =          48        mffmem =           1         mkmem =           4
       mpw =        5294          nfft =       91125          nkpt =         112
  Rough estimation (10% accuracy) of disk space for files :

 DATASET    2 : space group P2 (#  3); Bravais mP (primitive monocl.)
     intxc =       0    ionmov =       0      iscf =       7    lmnmax =       8
     lnmax =       8     mgfft =      45  mpssoang =       4    mqgrid =    3001
     natom =      12  nloc_mem =       1    nspden =       1   nspinor =       1
    nsppol =       1      nsym =       2    n1xccc =    2501    ntypat =       2
    occopt =       1   xclevel =       2
-    mband =          48        mffmem =           1         mkmem =           4
       mpw =        5294          nfft =       91125          nkpt =         112
  Rough estimation (10% accuracy) of disk space for files :

------------- Echo of variables that govern the present computation ------------
-
- outvars: echo of selected default values
-   iomode0 =  0 , fftalg0 =512 , wfoptalg0 =  0
-
- outvars: echo of global parameters not present in the input file
-  max_nthreads =    0
-
 -outvars: echo values of preprocessed input variables --------
            acell      9.5914334888E+00  9.5914334888E+00  9.5914334888E+00 Bohr
              amu      1.78490000E+02  1.59994000E+01
         berryopt1         -1
         berryopt2          4
          chkprim           0
             ecut      2.50000000E+01 Hartree
           ecutsm      5.00000000E-01 Hartree
           efield     -2.60127598E-13  6.17028420E-04  2.30222274E-12
-          fftalg         512
           getwfk1          0
           getwfk2          1
           istwfk        1    0    0    1    0    0    0    0    0    0
                         0    0    0    0    0    0    1    0    0    1
                         0    0    0    0    0    0    0    0    0    0
                         0    0    0    0    0    0    0    0    0    0
                         0    0    0    0    0    0    0    0    0    0
                       outvar_i_n : Printing only first  50 k-points.
              ixc          11
           jdtset        1    2
              kpt      0.00000000E+00  0.00000000E+00  0.00000000E+00
                       1.66666667E-01  0.00000000E+00  0.00000000E+00
                       3.33333333E-01  0.00000000E+00  0.00000000E+00
                       5.00000000E-01  0.00000000E+00  0.00000000E+00
                       0.00000000E+00  1.66666667E-01  0.00000000E+00
                       1.66666667E-01  1.66666667E-01  0.00000000E+00
                       3.33333333E-01  1.66666667E-01  0.00000000E+00
                       5.00000000E-01  1.66666667E-01  0.00000000E+00
                      -3.33333333E-01  1.66666667E-01  0.00000000E+00
                      -1.66666667E-01  1.66666667E-01  0.00000000E+00
                       0.00000000E+00  3.33333333E-01  0.00000000E+00
                       1.66666667E-01  3.33333333E-01  0.00000000E+00
                       3.33333333E-01  3.33333333E-01  0.00000000E+00
                       5.00000000E-01  3.33333333E-01  0.00000000E+00
                      -3.33333333E-01  3.33333333E-01  0.00000000E+00
                      -1.66666667E-01  3.33333333E-01  0.00000000E+00
                       0.00000000E+00  5.00000000E-01  0.00000000E+00
                       1.66666667E-01  5.00000000E-01  0.00000000E+00
                       3.33333333E-01  5.00000000E-01  0.00000000E+00
                       5.00000000E-01  5.00000000E-01  0.00000000E+00
                       0.00000000E+00  0.00000000E+00  1.66666667E-01
                       1.66666667E-01  0.00000000E+00  1.66666667E-01
                       3.33333333E-01  0.00000000E+00  1.66666667E-01
                       5.00000000E-01  0.00000000E+00  1.66666667E-01
                      -3.33333333E-01  0.00000000E+00  1.66666667E-01
                      -1.66666667E-01  0.00000000E+00  1.66666667E-01
                       0.00000000E+00  1.66666667E-01  1.66666667E-01
                       1.66666667E-01  1.66666667E-01  1.66666667E-01
                       3.33333333E-01  1.66666667E-01  1.66666667E-01
                       5.00000000E-01  1.66666667E-01  1.66666667E-01
                      -3.33333333E-01  1.66666667E-01  1.66666667E-01
                      -1.66666667E-01  1.66666667E-01  1.66666667E-01
                       0.00000000E+00  3.33333333E-01  1.66666667E-01
                       1.66666667E-01  3.33333333E-01  1.66666667E-01
                       3.33333333E-01  3.33333333E-01  1.66666667E-01
                       5.00000000E-01  3.33333333E-01  1.66666667E-01
                      -3.33333333E-01  3.33333333E-01  1.66666667E-01
                      -1.66666667E-01  3.33333333E-01  1.66666667E-01
                       0.00000000E+00  5.00000000E-01  1.66666667E-01
                       1.66666667E-01  5.00000000E-01  1.66666667E-01
                       3.33333333E-01  5.00000000E-01  1.66666667E-01
                       5.00000000E-01  5.00000000E-01  1.66666667E-01
                      -3.33333333E-01  5.00000000E-01  1.66666667E-01
                      -1.66666667E-01  5.00000000E-01  1.66666667E-01
                       0.00000000E+00 -3.33333333E-01  1.66666667E-01
                       1.66666667E-01 -3.33333333E-01  1.66666667E-01
                       3.33333333E-01 -3.33333333E-01  1.66666667E-01
                       5.00000000E-01 -3.33333333E-01  1.66666667E-01
                      -3.33333333E-01 -3.33333333E-01  1.66666667E-01
                      -1.66666667E-01 -3.33333333E-01  1.66666667E-01
                       outvar_i_n : Printing only first  50 k-points.
           kptopt           2
         kptrlatt        6    0    0      0    6    0      0    0    6
          kptrlen      5.75486009E+01
P           mkmem           4
            natom          12
            nband          48
           ndtset           2
            ngfft          45      45      45
             nkpt         112
            nstep         100
             nsym           2
           ntypat           2
              occ      2.000000  2.000000  2.000000  2.000000  2.000000  2.000000
                       2.000000  2.000000  2.000000  2.000000  2.000000  2.000000
                       2.000000  2.000000  2.000000  2.000000  2.000000  2.000000
                       2.000000  2.000000  2.000000  2.000000  2.000000  2.000000
                       2.000000  2.000000  2.000000  2.000000  2.000000  2.000000
                       2.000000  2.000000  2.000000  2.000000  2.000000  2.000000
                       2.000000  2.000000  2.000000  2.000000  2.000000  2.000000
                       2.000000  2.000000  2.000000  2.000000  2.000000  2.000000
        pawecutdg      2.50000000E+01 Hartree
         pawxcdev           0
            rfdir1          1       1       1
            rfdir2          0       0       0
          spgroup           3
        symmorphi           0
           symrel      1  0  0   0  1  0   0  0  1      -1  0  0   0  1  0   0  0 -1
           toldfe      1.00000000E-10 Hartree
           tolmxf      1.00000000E-05
           tsmear      4.00000000E-02 Hartree
            typat      1  1  1  1  2  2  2  2  2  2  2  2
              wtk        0.00463    0.00926    0.00926    0.00463    0.00926    0.00926
                         0.00926    0.00926    0.00926    0.00926    0.00926    0.00926
                         0.00926    0.00926    0.00926    0.00926    0.00463    0.00926
                         0.00926    0.00463    0.00926    0.00926    0.00926    0.00926
                         0.00926    0.00926    0.00926    0.00926    0.00926    0.00926
                         0.00926    0.00926    0.00926    0.00926    0.00926    0.00926
                         0.00926    0.00926    0.00926    0.00926    0.00926    0.00926
                         0.00926    0.00926    0.00926    0.00926    0.00926    0.00926
                         0.00926    0.00926
                       outvars : Printing only first  50 k-points.
           xangst      0.0000000000E+00  1.0048873456E-01  0.0000000000E+00
                       2.5377840000E+00  2.6383038985E+00  0.0000000000E+00
                       0.0000000000E+00  2.6382753739E+00  2.5377840000E+00
                       2.5377840000E+00  1.0050786945E-01  2.5377840000E+00
                       1.3450853102E+00  1.2674297796E+00  1.0118269667E+00
                       1.1926274796E+00  1.2672228995E+00  3.5496216761E+00
                       3.8828604279E+00  3.8050626292E+00  1.0118501113E+00
                       3.7305497381E+00  3.8052429134E+00  3.5496490335E+00
                       1.3450182619E+00  3.8052429134E+00  1.5259189665E+00
                       1.1927075721E+00  3.8050626292E+00  4.0637178887E+00
                       3.8829405204E+00  1.2672228995E+00  1.5259463239E+00
                       3.7304826898E+00  1.2674297796E+00  4.0637410333E+00
            xcart      0.0000000000E+00  1.8989618776E-01  0.0000000000E+00
                       4.7957167444E+00  4.9856718236E+00  0.0000000000E+00
                       0.0000000000E+00  4.9856179197E+00  4.7957167444E+00
                       4.7957167444E+00  1.8993234746E-01  4.7957167444E+00
                       2.5418428616E+00  2.3950951761E+00  1.9120758609E+00
                       2.2537393150E+00  2.3947042293E+00  6.7078128433E+00
                       7.3375428210E+00  7.1905262877E+00  1.9121195979E+00
                       7.0497173300E+00  7.1908669754E+00  6.7078645411E+00
                       2.5417161588E+00  7.1908669754E+00  2.8835689477E+00
                       2.2538906678E+00  7.1905262877E+00  7.6793138910E+00
                       7.3376941739E+00  2.3947042293E+00  2.8836206456E+00
                       7.0495906272E+00  2.3950951761E+00  7.6793576279E+00
             xred      0.0000000000E+00  1.9798520000E-02  0.0000000000E+00
                       5.0000000000E-01  5.1980466000E-01  0.0000000000E+00
                       0.0000000000E+00  5.1979904000E-01  5.0000000000E-01
                       5.0000000000E-01  1.9802290000E-02  5.0000000000E-01
[...]
    5      0.00000000277598    -0.00000000353491    -0.00000000099598
    6      0.00000000400968     0.00000000826941    -0.00000000153033
    7     -0.00000001134938    -0.00000000792574    -0.00000001334614
    8     -0.00000000958285     0.00000000128421     0.00000000956357
    9      0.00000000958285     0.00000000128421    -0.00000000956357
   10      0.00000001134938    -0.00000000792574     0.00000001334614
   11     -0.00000000400968     0.00000000826941     0.00000000153033
   12     -0.00000000277598    -0.00000000353491     0.00000000099598
 frms,max,avg= 7.1411118E-09 1.9378312E-08   0.000E+00 -2.946E-06  0.000E+00 h/b

 cartesian forces (eV/Angstrom) at end:
    1      0.00000000000000    -0.00000020642478    -0.00000000000000
    2      0.00000000000000     0.00000099647276    -0.00000000000000
    3      0.00000000000000    -0.00000003441700    -0.00000000000000
    4      0.00000000000000    -0.00000055950476    -0.00000000000000
    5      0.00000014274672    -0.00000018177216    -0.00000005121531
    6      0.00000020618627     0.00000042523026    -0.00000007869249
    7     -0.00000058360845    -0.00000040755807    -0.00000068628592
    8     -0.00000049276992     0.00000006603686     0.00000049177875
    9      0.00000049276992     0.00000006603686    -0.00000049177875
   10      0.00000058360845    -0.00000040755807     0.00000068628592
   11     -0.00000020618627     0.00000042523026     0.00000007869249
   12     -0.00000014274672    -0.00000018177216     0.00000005121531
 frms,max,avg= 3.6721070E-07 9.9647276E-07   0.000E+00 -1.515E-04  0.000E+00 e/A
 length scales=  9.591433488838  9.591433488838  9.591433488838 bohr
              =  5.075568000000  5.075568000000  5.075568000000 angstroms
 prteigrs : about to open file o_DS2_EIG
 Fermi (or HOMO) energy (hartree) =   0.27652   Average Vxc (hartree)=  -0.44593
 Eigenvalues (hartree) for nkpt= 112  k points:
 kpt#   1, nband= 48, wtk=  0.00463, kpt=  0.0000  0.0000  0.0000 (reduced coord)
  -1.94292   -1.94225   -1.94223   -1.94222   -0.80495   -0.80486   -0.80456   -0.79361
  -0.79276   -0.79236   -0.79159   -0.79139   -0.79114   -0.78793   -0.78659   -0.78651
  -0.39526   -0.33818   -0.33020   -0.32871   -0.31887   -0.31671   -0.31546   -0.29902
   0.06070    0.06110    0.07232    0.09607    0.10341    0.10458    0.15973    0.16341
   0.16656    0.17014    0.17181    0.17185    0.21691    0.22293    0.22442    0.22956
   0.24276    0.25114    0.25243    0.25402    0.25512    0.26561    0.26973    0.27517
 prteigrs : prtvol=0 or 1, do not print more k-points.

--- !EnergyTerms
iteration_state     : {dtset: 2, }
comment             : Components of total free energy in Hartree
kinetic             :  1.46254548527493E+02
hartree             :  5.60330818854193E+01
xc                  : -9.09179184676280E+01
Ewald energy        : -2.70029447359155E+02
psp_core            :  1.49595106529080E+01
local_psp           : -2.05812320786275E+02
non_local_psp       : -9.12067676468956E+00
electric            : -2.30247000602622E-03
kohn_sham           : -3.58633222311927E+02
total_energy        : -3.58635524781933E+02
total_energy_eV     : -9.75896893067373E+03
band_energy         : -3.11186074878302E+01
...

Constant unreduced E calculation  - final values:
 (a. u.)
       E:  -2.601275984E-13   6.170284204E-04   2.302222738E-12
       P:  -3.510752428E-13   4.204454764E-03   3.301076545E-14

    ebar:  -2.494996558E-12   5.918187055E-03   2.208161626E-11
    pbar:  -4.231492627E-11   5.067608639E-01   3.978771317E-12

       e:  -1.904336127E-12   4.517127439E-03   1.685405916E-11
       p:  -3.229737634E-11   3.867913235E-01   3.036845055E-12

 (S.I.), that is V/m for E, and C/m^2 for P
-      E:  -1.337629780E-01   3.172887443E+08   1.183850431E+00
       P:  -2.008668628E-11   2.405568765E-01   1.888703072E-12

 Please check: COMMENT -
  As a rough estimate,
  to be below the critical field, the bandgap of your system
  should be larger than    0.97 eV.

 Cartesian components of stress tensor (hartree/bohr^3)
  sigma(1 1)= -1.94947939E-04  sigma(3 2)=  0.00000000E+00
  sigma(2 2)= -2.06822271E-04  sigma(3 1)=  5.49274221E-09
  sigma(3 3)= -4.92085839E-04  sigma(2 1)=  0.00000000E+00

-Cartesian components of stress tensor (GPa)         [Pressure=  8.7660E+00 GPa]
- sigma(1 1)= -5.73556543E+00  sigma(3 2)=  0.00000000E+00
- sigma(2 2)= -6.08492027E+00  sigma(3 1)=  1.61602028E-04
- sigma(3 3)= -1.44776628E+01  sigma(2 1)=  0.00000000E+00

== END DATASET(S) ==============================================================

 -outvars: echo values of variables after computation  --------
            acell      9.5914334888E+00  9.5914334888E+00  9.5914334888E+00 Bohr
              amu      1.78490000E+02  1.59994000E+01
         berryopt1         -1
         berryopt2          4
          chkprim           0
             ecut      2.50000000E+01 Hartree
           ecutsm      5.00000000E-01 Hartree
           efield     -2.60127598E-13  6.17028420E-04  2.30222274E-12
           etotal1    -3.5863327604E+02
           etotal2    -3.5863552478E+02
            fcart1     0.0000000000E+00 -3.3736828290E-03  1.1293772630E-21
                       0.0000000000E+00 -3.3718651707E-03  1.1293772630E-21
                       0.0000000000E+00 -3.3722492344E-03  1.1293772630E-21
                       0.0000000000E+00 -3.3732676133E-03  1.1293772630E-21
                       3.7755119882E-04  1.6865601301E-03 -8.4348952126E-05
                      -3.7741107482E-04  1.6864972099E-03 -8.4469845620E-05
                       3.7735709423E-04  1.6861942312E-03 -8.4234413301E-05
                      -3.7752023990E-04  1.6862808524E-03 -8.4425178663E-05
                       3.7752023990E-04  1.6862808524E-03  8.4425178663E-05
                      -3.7735709423E-04  1.6861942312E-03  8.4234413301E-05
                       3.7741107482E-04  1.6864972099E-03  8.4469845620E-05
                      -3.7755119882E-04  1.6865601301E-03  8.4348952126E-05
            fcart2     3.4465858856E-26 -4.0143232239E-09 -3.4465858856E-26
                       3.4465858856E-26  1.9378311547E-08 -3.4465858856E-26
                       3.4465858856E-26 -6.6930412296E-10 -3.4465858856E-26
                       3.4465858856E-26 -1.0880636250E-08 -3.4465858856E-26
                       2.7759819873E-09 -3.5349060183E-09 -9.9597930751E-10
                       4.0096848910E-09  8.2694127285E-09 -1.5303253373E-09
                      -1.1349378360E-08 -7.9257432722E-09 -1.3346137431E-08
                      -9.5828500674E-09  1.2842125866E-09  9.5635748336E-09
                       9.5828500674E-09  1.2842125866E-09 -9.5635748336E-09
                       1.1349378360E-08 -7.9257432722E-09  1.3346137431E-08
                      -4.0096848910E-09  8.2694127285E-09  1.5303253373E-09
                      -2.7759819873E-09 -3.5349060183E-09  9.9597930751E-10
-          fftalg         512
           getwfk1          0
           getwfk2          1
           istwfk        1    0    0    1    0    0    0    0    0    0
                         0    0    0    0    0    0    1    0    0    1
                         0    0    0    0    0    0    0    0    0    0
                         0    0    0    0    0    0    0    0    0    0
                         0    0    0    0    0    0    0    0    0    0
                       outvar_i_n : Printing only first  50 k-points.
              ixc          11
           jdtset        1    2
              kpt      0.00000000E+00  0.00000000E+00  0.00000000E+00
                       1.66666667E-01  0.00000000E+00  0.00000000E+00
                       3.33333333E-01  0.00000000E+00  0.00000000E+00
                       5.00000000E-01  0.00000000E+00  0.00000000E+00
                       0.00000000E+00  1.66666667E-01  0.00000000E+00
                       1.66666667E-01  1.66666667E-01  0.00000000E+00
                       3.33333333E-01  1.66666667E-01  0.00000000E+00
                       5.00000000E-01  1.66666667E-01  0.00000000E+00
                      -3.33333333E-01  1.66666667E-01  0.00000000E+00
                      -1.66666667E-01  1.66666667E-01  0.00000000E+00
                       0.00000000E+00  3.33333333E-01  0.00000000E+00
                       1.66666667E-01  3.33333333E-01  0.00000000E+00
                       3.33333333E-01  3.33333333E-01  0.00000000E+00
                       5.00000000E-01  3.33333333E-01  0.00000000E+00
                      -3.33333333E-01  3.33333333E-01  0.00000000E+00
                      -1.66666667E-01  3.33333333E-01  0.00000000E+00
                       0.00000000E+00  5.00000000E-01  0.00000000E+00
                       1.66666667E-01  5.00000000E-01  0.00000000E+00
                       3.33333333E-01  5.00000000E-01  0.00000000E+00
                       5.00000000E-01  5.00000000E-01  0.00000000E+00
                       0.00000000E+00  0.00000000E+00  1.66666667E-01
                       1.66666667E-01  0.00000000E+00  1.66666667E-01
                       3.33333333E-01  0.00000000E+00  1.66666667E-01
                       5.00000000E-01  0.00000000E+00  1.66666667E-01
                      -3.33333333E-01  0.00000000E+00  1.66666667E-01
                      -1.66666667E-01  0.00000000E+00  1.66666667E-01
                       0.00000000E+00  1.66666667E-01  1.66666667E-01
                       1.66666667E-01  1.66666667E-01  1.66666667E-01
                       3.33333333E-01  1.66666667E-01  1.66666667E-01
                       5.00000000E-01  1.66666667E-01  1.66666667E-01
                      -3.33333333E-01  1.66666667E-01  1.66666667E-01
                      -1.66666667E-01  1.66666667E-01  1.66666667E-01
                       0.00000000E+00  3.33333333E-01  1.66666667E-01
                       1.66666667E-01  3.33333333E-01  1.66666667E-01
                       3.33333333E-01  3.33333333E-01  1.66666667E-01
                       5.00000000E-01  3.33333333E-01  1.66666667E-01
                      -3.33333333E-01  3.33333333E-01  1.66666667E-01
                      -1.66666667E-01  3.33333333E-01  1.66666667E-01
                       0.00000000E+00  5.00000000E-01  1.66666667E-01
                       1.66666667E-01  5.00000000E-01  1.66666667E-01
                       3.33333333E-01  5.00000000E-01  1.66666667E-01
                       5.00000000E-01  5.00000000E-01  1.66666667E-01
                      -3.33333333E-01  5.00000000E-01  1.66666667E-01
                      -1.66666667E-01  5.00000000E-01  1.66666667E-01
                       0.00000000E+00 -3.33333333E-01  1.66666667E-01
                       1.66666667E-01 -3.33333333E-01  1.66666667E-01
                       3.33333333E-01 -3.33333333E-01  1.66666667E-01
                       5.00000000E-01 -3.33333333E-01  1.66666667E-01
                      -3.33333333E-01 -3.33333333E-01  1.66666667E-01
                      -1.66666667E-01 -3.33333333E-01  1.66666667E-01
                       outvar_i_n : Printing only first  50 k-points.
           kptopt           2
         kptrlatt        6    0    0      0    6    0      0    0    6
          kptrlen      5.75486009E+01
P           mkmem           4
            natom          12
            nband          48
           ndtset           2
            ngfft          45      45      45
             nkpt         112
            nstep         100
             nsym           2
           ntypat           2
              occ      2.000000  2.000000  2.000000  2.000000  2.000000  2.000000
                       2.000000  2.000000  2.000000  2.000000  2.000000  2.000000
                       2.000000  2.000000  2.000000  2.000000  2.000000  2.000000
                       2.000000  2.000000  2.000000  2.000000  2.000000  2.000000
                       2.000000  2.000000  2.000000  2.000000  2.000000  2.000000
                       2.000000  2.000000  2.000000  2.000000  2.000000  2.000000
                       2.000000  2.000000  2.000000  2.000000  2.000000  2.000000
                       2.000000  2.000000  2.000000  2.000000  2.000000  2.000000
        pawecutdg      2.50000000E+01 Hartree
         pawxcdev           0
            rfdir1          1       1       1
            rfdir2          0       0       0
          spgroup           3
           strten1    -1.9677027858E-04 -2.0366629295E-04 -4.9345169270E-04
                       0.0000000000E+00  5.4800790789E-09  0.0000000000E+00
           strten2    -1.9494793935E-04 -2.0682227117E-04 -4.9208583875E-04
                       0.0000000000E+00  5.4927422092E-09  0.0000000000E+00
        symmorphi           0
           symrel      1  0  0   0  1  0   0  0  1      -1  0  0   0  1  0   0  0 -1
           toldfe      1.00000000E-10 Hartree
           tolmxf      1.00000000E-05
           tsmear      4.00000000E-02 Hartree
            typat      1  1  1  1  2  2  2  2  2  2  2  2
              wtk        0.00463    0.00926    0.00926    0.00463    0.00926    0.00926
                         0.00926    0.00926    0.00926    0.00926    0.00926    0.00926
                         0.00926    0.00926    0.00926    0.00926    0.00463    0.00926
                         0.00926    0.00463    0.00926    0.00926    0.00926    0.00926
                         0.00926    0.00926    0.00926    0.00926    0.00926    0.00926
                         0.00926    0.00926    0.00926    0.00926    0.00926    0.00926
                         0.00926    0.00926    0.00926    0.00926    0.00926    0.00926
                         0.00926    0.00926    0.00926    0.00926    0.00926    0.00926
                         0.00926    0.00926
                       outvars : Printing only first  50 k-points.
           xangst      0.0000000000E+00  1.0048873456E-01  0.0000000000E+00
                       2.5377840000E+00  2.6383038985E+00  0.0000000000E+00
                       0.0000000000E+00  2.6382753739E+00  2.5377840000E+00
                       2.5377840000E+00  1.0050786945E-01  2.5377840000E+00
                       1.3450853102E+00  1.2674297796E+00  1.0118269667E+00
                       1.1926274796E+00  1.2672228995E+00  3.5496216761E+00
                       3.8828604279E+00  3.8050626292E+00  1.0118501113E+00
                       3.7305497381E+00  3.8052429134E+00  3.5496490335E+00
                       1.3450182619E+00  3.8052429134E+00  1.5259189665E+00
                       1.1927075721E+00  3.8050626292E+00  4.0637178887E+00
                       3.8829405204E+00  1.2672228995E+00  1.5259463239E+00
                       3.7304826898E+00  1.2674297796E+00  4.0637410333E+00
            xcart      0.0000000000E+00  1.8989618776E-01  0.0000000000E+00
                       4.7957167444E+00  4.9856718236E+00  0.0000000000E+00
                       0.0000000000E+00  4.9856179197E+00  4.7957167444E+00
                       4.7957167444E+00  1.8993234746E-01  4.7957167444E+00
                       2.5418428616E+00  2.3950951761E+00  1.9120758609E+00
                       2.2537393150E+00  2.3947042293E+00  6.7078128433E+00
                       7.3375428210E+00  7.1905262877E+00  1.9121195979E+00
                       7.0497173300E+00  7.1908669754E+00  6.7078645411E+00
                       2.5417161588E+00  7.1908669754E+00  2.8835689477E+00
                       2.2538906678E+00  7.1905262877E+00  7.6793138910E+00
                       7.3376941739E+00  2.3947042293E+00  2.8836206456E+00
                       7.0495906272E+00  2.3950951761E+00  7.6793576279E+00
             xred      0.0000000000E+00  1.9798520000E-02  0.0000000000E+00
                       5.0000000000E-01  5.1980466000E-01  0.0000000000E+00
                       0.0000000000E+00  5.1979904000E-01  5.0000000000E-01
                       5.0000000000E-01  1.9802290000E-02  5.0000000000E-01
                       2.6501178000E-01  2.4971191000E-01  1.9935246000E-01
                       2.3497419000E-01  2.4967115000E-01  6.9935457000E-01
                       7.6501003000E-01  7.4968213000E-01  1.9935702000E-01
                       7.3500143000E-01  7.4971765000E-01  6.9935996000E-01
                       2.6499857000E-01  7.4971765000E-01  3.0064004000E-01
                       2.3498997000E-01  7.4968213000E-01  8.0064298000E-01
                       7.6502581000E-01  2.4967115000E-01  3.0064543000E-01
                       7.3498822000E-01  2.4971191000E-01  8.0064754000E-01
            znucl       72.00000    8.00000

- Timing analysis has been suppressed with timopt=0

 Suggested references for the acknowledgment of ABINIT usage.

 Calculation completed.
.Delivered   0 WARNINGs and   2 COMMENTs to log file.