.Version 9.4.2 of ABINIT

 ABINIT is a project of the Universite Catholique de Louvain,
 Corning Inc. and other collaborators, see ~abinit/doc/developers/contributors.txt .
 acknowledgments of the ABINIT effort.

.Starting date : Mon 21 Jun 2021.
- ( at 06h45 )

- input  file    -> /p/work1/jiahaoz/HfO4/CUBIC_ITERATE/itertwo/P-0.15/scf10
- output file    -> /p/work1/jiahaoz/HfO4/CUBIC_ITERATE/itertwo/P-0.15/scf10.abo
- root for input  files -> i
- root for output files -> o

 DATASET    1 : space group P1 (#  1); Bravais aP (primitive triclinic)
     intxc =       0    ionmov =       0      iscf =       7    lmnmax =       8
     lnmax =       8     mgfft =      45  mpssoang =       4    mqgrid =    3001
     natom =      12  nloc_mem =       1    nspden =       1   nspinor =       1
    nsppol =       1      nsym =       1    n1xccc =    2501    ntypat =       2
    occopt =       1   xclevel =       2
-    mband =          48        mffmem =           1         mkmem =           4
       mpw =        5294          nfft =       91125          nkpt =         112
  Rough estimation (10% accuracy) of disk space for files :

 DATASET    2 : space group P1 (#  1); Bravais aP (primitive triclinic)
     intxc =       0    ionmov =       0      iscf =       7    lmnmax =       8
     lnmax =       8     mgfft =      45  mpssoang =       4    mqgrid =    3001
     natom =      12  nloc_mem =       1    nspden =       1   nspinor =       1
    nsppol =       1      nsym =       1    n1xccc =    2501    ntypat =       2
    occopt =       1   xclevel =       2
-    mband =          48        mffmem =           1         mkmem =           4
       mpw =        5294          nfft =       91125          nkpt =         112
  Rough estimation (10% accuracy) of disk space for files :

------------- Echo of variables that govern the present computation ------------
-
- outvars: echo of selected default values
-   iomode0 =  0 , fftalg0 =512 , wfoptalg0 =  0
-
- outvars: echo of global parameters not present in the input file
-  max_nthreads =    0
-
 -outvars: echo values of preprocessed input variables --------
            acell      9.5914334888E+00  9.5914334888E+00  9.5914334888E+00 Bohr
              amu      1.78490000E+02  1.59994000E+01
         berryopt1         -1
         berryopt2          4
          chkprim           0
             ecut      2.50000000E+01 Hartree
           ecutsm      5.00000000E-01 Hartree
           efield     -7.61560859E-06 -1.46810156E-03 -6.49198546E-06
-          fftalg         512
           getwfk1          0
           getwfk2          1
           istwfk        1    0    0    1    0    0    0    0    0    0
                         0    0    0    0    0    0    1    0    0    1
                         0    0    0    0    0    0    0    0    0    0
                         0    0    0    0    0    0    0    0    0    0
                         0    0    0    0    0    0    0    0    0    0
                       outvar_i_n : Printing only first  50 k-points.
              ixc          11
           jdtset        1    2
              kpt      0.00000000E+00  0.00000000E+00  0.00000000E+00
                       1.66666667E-01  0.00000000E+00  0.00000000E+00
                       3.33333333E-01  0.00000000E+00  0.00000000E+00
                       5.00000000E-01  0.00000000E+00  0.00000000E+00
                       0.00000000E+00  1.66666667E-01  0.00000000E+00
                       1.66666667E-01  1.66666667E-01  0.00000000E+00
                       3.33333333E-01  1.66666667E-01  0.00000000E+00
                       5.00000000E-01  1.66666667E-01  0.00000000E+00
                      -3.33333333E-01  1.66666667E-01  0.00000000E+00
                      -1.66666667E-01  1.66666667E-01  0.00000000E+00
                       0.00000000E+00  3.33333333E-01  0.00000000E+00
                       1.66666667E-01  3.33333333E-01  0.00000000E+00
                       3.33333333E-01  3.33333333E-01  0.00000000E+00
                       5.00000000E-01  3.33333333E-01  0.00000000E+00
                      -3.33333333E-01  3.33333333E-01  0.00000000E+00
                      -1.66666667E-01  3.33333333E-01  0.00000000E+00
                       0.00000000E+00  5.00000000E-01  0.00000000E+00
                       1.66666667E-01  5.00000000E-01  0.00000000E+00
                       3.33333333E-01  5.00000000E-01  0.00000000E+00
                       5.00000000E-01  5.00000000E-01  0.00000000E+00
                       0.00000000E+00  0.00000000E+00  1.66666667E-01
                       1.66666667E-01  0.00000000E+00  1.66666667E-01
                       3.33333333E-01  0.00000000E+00  1.66666667E-01
                       5.00000000E-01  0.00000000E+00  1.66666667E-01
                      -3.33333333E-01  0.00000000E+00  1.66666667E-01
                      -1.66666667E-01  0.00000000E+00  1.66666667E-01
                       0.00000000E+00  1.66666667E-01  1.66666667E-01
                       1.66666667E-01  1.66666667E-01  1.66666667E-01
                       3.33333333E-01  1.66666667E-01  1.66666667E-01
                       5.00000000E-01  1.66666667E-01  1.66666667E-01
                      -3.33333333E-01  1.66666667E-01  1.66666667E-01
                      -1.66666667E-01  1.66666667E-01  1.66666667E-01
                       0.00000000E+00  3.33333333E-01  1.66666667E-01
                       1.66666667E-01  3.33333333E-01  1.66666667E-01
                       3.33333333E-01  3.33333333E-01  1.66666667E-01
                       5.00000000E-01  3.33333333E-01  1.66666667E-01
                      -3.33333333E-01  3.33333333E-01  1.66666667E-01
                      -1.66666667E-01  3.33333333E-01  1.66666667E-01
                       0.00000000E+00  5.00000000E-01  1.66666667E-01
                       1.66666667E-01  5.00000000E-01  1.66666667E-01
                       3.33333333E-01  5.00000000E-01  1.66666667E-01
                       5.00000000E-01  5.00000000E-01  1.66666667E-01
                      -3.33333333E-01  5.00000000E-01  1.66666667E-01
                      -1.66666667E-01  5.00000000E-01  1.66666667E-01
                       0.00000000E+00 -3.33333333E-01  1.66666667E-01
                       1.66666667E-01 -3.33333333E-01  1.66666667E-01
                       3.33333333E-01 -3.33333333E-01  1.66666667E-01
                       5.00000000E-01 -3.33333333E-01  1.66666667E-01
                      -3.33333333E-01 -3.33333333E-01  1.66666667E-01
                      -1.66666667E-01 -3.33333333E-01  1.66666667E-01
                       outvar_i_n : Printing only first  50 k-points.
           kptopt           2
         kptrlatt        6    0    0      0    6    0      0    0    6
          kptrlen      5.75486009E+01
P           mkmem           4
            natom          12
            nband          48
           ndtset           2
            ngfft          45      45      45
             nkpt         112
            nstep         100
             nsym           1
           ntypat           2
              occ      2.000000  2.000000  2.000000  2.000000  2.000000  2.000000
                       2.000000  2.000000  2.000000  2.000000  2.000000  2.000000
                       2.000000  2.000000  2.000000  2.000000  2.000000  2.000000
                       2.000000  2.000000  2.000000  2.000000  2.000000  2.000000
                       2.000000  2.000000  2.000000  2.000000  2.000000  2.000000
                       2.000000  2.000000  2.000000  2.000000  2.000000  2.000000
                       2.000000  2.000000  2.000000  2.000000  2.000000  2.000000
                       2.000000  2.000000  2.000000  2.000000  2.000000  2.000000
        pawecutdg      2.50000000E+01 Hartree
         pawxcdev           0
            rfdir1          1       1       1
            rfdir2          0       0       0
          spgroup           1
        symmorphi           0
           toldfe      1.00000000E-10 Hartree
           tolmxf      1.00000000E-05
           tsmear      4.00000000E-02 Hartree
            typat      1  1  1  1  2  2  2  2  2  2  2  2
              wtk        0.00463    0.00926    0.00926    0.00463    0.00926    0.00926
                         0.00926    0.00926    0.00926    0.00926    0.00926    0.00926
                         0.00926    0.00926    0.00926    0.00926    0.00463    0.00926
                         0.00926    0.00463    0.00926    0.00926    0.00926    0.00926
                         0.00926    0.00926    0.00926    0.00926    0.00926    0.00926
                         0.00926    0.00926    0.00926    0.00926    0.00926    0.00926
                         0.00926    0.00926    0.00926    0.00926    0.00926    0.00926
                         0.00926    0.00926    0.00926    0.00926    0.00926    0.00926
                         0.00926    0.00926
                       outvars : Printing only first  50 k-points.
           xangst      2.4274315081E-01 -1.8908470272E-02 -1.0977793760E-02
                       2.6231937296E+00  2.5187978735E+00 -3.1466237594E-01
                       2.4294028587E-01  2.5188511670E+00  2.2230772636E+00
                       2.6233807135E+00 -1.8939380481E-02  2.5267504765E+00
                       1.6240384260E+00  1.2625574881E+00  1.0240139130E+00
                       1.2425602070E+00  1.2628181693E+00  3.5617375645E+00
                       4.3106331564E+00  3.2995172260E+00  5.2411096805E-01
                       3.6310436842E+00  3.2991548305E+00  3.0616382458E+00
                       1.6242972292E+00  3.8005234472E+00  1.1882416305E+00
                       1.2423075960E+00  3.8007647397E+00  3.7260898872E+00
                       4.3096974755E+00  7.6339379963E-01  1.6874310521E+00
                       3.6319641892E+00  7.6299460620E-01  4.2254642625E+00
            xcart      4.5871807566E-01 -3.5731830405E-02 -2.0745023750E-02
                       4.9571177424E+00  4.7598381651E+00 -5.9462571486E-01
                       4.5909060694E-01  4.7599388751E+00  4.2010072004E+00
                       4.9574710908E+00 -3.5790242235E-02  4.7748664067E+00
                       3.0689878543E+00  2.3858878796E+00  1.9351058519E+00
                       2.3480984948E+00  2.3863804956E+00  6.7307085542E+00
                       8.1459161250E+00  6.2351839280E+00  9.9042619286E-01
                       6.8616781397E+00  6.2344990996E+00  5.7856578026E+00
                       3.0694769215E+00  7.1819484769E+00  2.2454512614E+00
                       2.3476211292E+00  7.1824044536E+00  7.0412894334E+00
                       8.1441479442E+00  1.4426052128E+00  3.1887825567E+00
                       6.8634176421E+00  1.4418508466E+00  7.9849702405E+00
             xred      4.7825810000E-02 -3.7253900000E-03 -2.1628700000E-03
                       5.1682762000E-01  4.9625931000E-01 -6.1995500000E-02
                       4.7864650000E-02  4.9626981000E-01  4.3799576000E-01
                       5.1686446000E-01 -3.7314800000E-03  4.9782615000E-01
                       3.1997176000E-01  2.4875196000E-01  2.0175356000E-01
[...]
    4     -0.00000000752654     0.00000000559468     0.00000001065590
    5      0.00000000126837    -0.00000000703365     0.00000000180498
    6      0.00000000302983     0.00000000027249     0.00000000347377
    7     -0.00000000273434     0.00000000057667     0.00000000598572
    8      0.00000000520229     0.00000000536094    -0.00000000650107
    9      0.00000000260877     0.00000000228531     0.00000000814832
   10     -0.00000001141453     0.00000000086388    -0.00000000340395
   11      0.00000000165701    -0.00000000296735    -0.00000000084103
   12     -0.00000000446453    -0.00000000164147    -0.00000000277643
 frms,max,avg= 7.4089062E-09 1.9075406E-08  -1.146E-05  1.272E-06 -2.099E-07 h/b

 cartesian forces (eV/Angstrom) at end:
    1      0.00000074318627     0.00000042386683    -0.00000098089672
    2     -0.00000054560043    -0.00000096494099    -0.00000021715074
    3      0.00000043869376     0.00000037079073     0.00000034720694
    4     -0.00000038703000     0.00000028769005     0.00000054794847
    5      0.00000006522240    -0.00000036168496     0.00000009281563
    6      0.00000015580033     0.00000001401175     0.00000017862847
    7     -0.00000014060541     0.00000002965341     0.00000030779812
    8      0.00000026751229     0.00000027567058    -0.00000033429862
    9      0.00000013414829     0.00000011751543     0.00000041900357
   10     -0.00000058695887     0.00000004442245    -0.00000017503791
   11      0.00000008520695    -0.00000015258727    -0.00000004324732
   12     -0.00000022957558    -0.00000008440802    -0.00000014276990
 frms,max,avg= 3.8098124E-07 9.8089672E-07  -5.893E-04  6.541E-05 -1.079E-05 e/A
 length scales=  9.591433488838  9.591433488838  9.591433488838 bohr
              =  5.075568000000  5.075568000000  5.075568000000 angstroms
 prteigrs : about to open file o_DS2_EIG
 Fermi (or HOMO) energy (hartree) =   0.27990   Average Vxc (hartree)=  -0.44594
 Eigenvalues (hartree) for nkpt= 112  k points:
 kpt#   1, nband= 48, wtk=  0.00463, kpt=  0.0000  0.0000  0.0000 (reduced coord)
  -1.94318   -1.94244   -1.94236   -1.94234   -0.80672   -0.80598   -0.80593   -0.79564
  -0.79303   -0.79278   -0.79275   -0.79269   -0.79195   -0.78784   -0.78767   -0.78708
  -0.39859   -0.34358   -0.34309   -0.33642   -0.31759   -0.31203   -0.31071   -0.30763
   0.06655    0.06808    0.07519    0.09808    0.10583    0.10662    0.15941    0.15975
   0.15993    0.16361    0.17629    0.19179    0.19345    0.20275    0.21446    0.21574
   0.22827    0.23396    0.23409    0.23704    0.24768    0.26534    0.27982    0.27990
 prteigrs : prtvol=0 or 1, do not print more k-points.

--- !EnergyTerms
iteration_state     : {dtset: 2, }
comment             : Components of total free energy in Hartree
kinetic             :  1.46362053617553E+02
hartree             :  5.64898544337859E+01
xc                  : -9.09436429486574E+01
Ewald energy        : -2.69357137482348E+02
psp_core            :  1.49595106529080E+01
local_psp           : -2.07016744979637E+02
non_local_psp       : -9.13241035512445E+00
electric            :  9.48657373164444E-03
kohn_sham           : -3.58638517061521E+02
total_energy        : -3.58629030487789E+02
total_energy_eV     : -9.75879221194287E+03
band_energy         : -3.13445332385636E+01
...

Constant unreduced E calculation  - final values:
 (a. u.)
       E:  -7.615608591E-06  -1.468101563E-03  -6.491985457E-06
       P:  -9.221526540E-06   7.381712828E-03  -3.954667405E-06

    ebar:  -7.304460327E-05  -1.408119850E-02  -6.226744672E-05
    pbar:  -1.111466056E-03   8.897142149E-01  -4.766541164E-04

       e:  -5.575217185E-05  -1.074764409E-02  -4.752637751E-05
       p:  -8.483398335E-04   6.790850738E-01  -3.638119864E-04

 (S.I.), that is V/m for E, and C/m^2 for P
-      E:  -3.916103062E+06  -7.549281137E+08  -3.338312864E+06
       P:  -5.276074415E-04   4.223429387E-01  -2.262653523E-04

 Please check: COMMENT -
  As a rough estimate,
  to be below the critical field, the bandgap of your system
  should be larger than    2.30 eV.

 Cartesian components of stress tensor (hartree/bohr^3)
  sigma(1 1)= -2.30329638E-04  sigma(3 2)= -1.55557331E-08
  sigma(2 2)= -2.50369457E-04  sigma(3 1)=  1.22161859E-08
  sigma(3 3)= -5.98540663E-04  sigma(2 1)=  2.09553063E-08

-Cartesian components of stress tensor (GPa)         [Pressure=  1.0584E+01 GPa]
- sigma(1 1)= -6.77653076E+00  sigma(3 2)= -4.57665392E-04
- sigma(2 2)= -7.36612250E+00  sigma(3 1)=  3.59412538E-04
- sigma(3 3)= -1.76096713E+01  sigma(2 1)=  6.16526293E-04

== END DATASET(S) ==============================================================

 -outvars: echo values of variables after computation  --------
            acell      9.5914334888E+00  9.5914334888E+00  9.5914334888E+00 Bohr
              amu      1.78490000E+02  1.59994000E+01
         berryopt1         -1
         berryopt2          4
          chkprim           0
             ecut      2.50000000E+01 Hartree
           ecutsm      5.00000000E-01 Hartree
           efield     -7.61560859E-06 -1.46810156E-03 -6.49198546E-06
           etotal1    -3.5863881147E+02
           etotal2    -3.5862903049E+02
            fcart1    -3.2429294135E-04  7.7106463389E-03  8.1083758535E-05
                       4.0419523549E-04  7.7134190236E-03 -2.0526625074E-05
                      -3.1970501302E-04  7.7095470555E-03 -1.6580578481E-05
                       4.0837439962E-04  7.7145724080E-03  8.5366266528E-05
                      -2.5092763557E-04 -3.8308908899E-03  4.2881689633E-04
                       2.1080780371E-04 -3.8282905811E-03  4.2531004485E-04
                      -1.0597339459E-03 -3.8849318399E-03  5.1141979414E-04
                       1.0151915923E-03 -3.8720880477E-03  5.2120253698E-04
                      -2.5389390778E-04 -3.8340732108E-03 -4.6251648919E-04
                       2.1417035571E-04 -3.8311306379E-03 -4.5961172860E-04
                      -1.0508224685E-03 -3.8897051728E-03 -5.4232931269E-04
                       1.0066365252E-03 -3.8770744459E-03 -5.5163456332E-04
            fcart2     1.4452673070E-08  8.2428980699E-09 -1.9075405723E-08
                      -1.0610240047E-08 -1.8765116084E-08 -4.2229100023E-09
                       8.5312360332E-09  7.2107323542E-09  6.7521005779E-09
                      -7.5265358193E-09  5.5946812137E-09  1.0655902158E-08
                       1.2683739190E-09 -7.0336531523E-09  1.8049767015E-09
                       3.0298342399E-09  2.7248523718E-10  3.4737710447E-09
                      -2.7343401362E-09  5.7666697076E-10  5.9857209828E-09
                       5.2022862069E-09  5.3609396513E-09 -6.5010735782E-09
                       2.6087691595E-09  2.2853114689E-09  8.1483228081E-09
                      -1.1414533589E-08  8.6387928092E-10 -3.4039456730E-09
                       1.6570115943E-09 -2.9673501508E-09 -8.4102654644E-10
                      -4.4645346306E-09 -1.6414748601E-09 -2.7764327492E-09
-          fftalg         512
           getwfk1          0
           getwfk2          1
           istwfk        1    0    0    1    0    0    0    0    0    0
                         0    0    0    0    0    0    1    0    0    1
                         0    0    0    0    0    0    0    0    0    0
                         0    0    0    0    0    0    0    0    0    0
                         0    0    0    0    0    0    0    0    0    0
                       outvar_i_n : Printing only first  50 k-points.
              ixc          11
           jdtset        1    2
              kpt      0.00000000E+00  0.00000000E+00  0.00000000E+00
                       1.66666667E-01  0.00000000E+00  0.00000000E+00
                       3.33333333E-01  0.00000000E+00  0.00000000E+00
                       5.00000000E-01  0.00000000E+00  0.00000000E+00
                       0.00000000E+00  1.66666667E-01  0.00000000E+00
                       1.66666667E-01  1.66666667E-01  0.00000000E+00
                       3.33333333E-01  1.66666667E-01  0.00000000E+00
                       5.00000000E-01  1.66666667E-01  0.00000000E+00
                      -3.33333333E-01  1.66666667E-01  0.00000000E+00
                      -1.66666667E-01  1.66666667E-01  0.00000000E+00
                       0.00000000E+00  3.33333333E-01  0.00000000E+00
                       1.66666667E-01  3.33333333E-01  0.00000000E+00
                       3.33333333E-01  3.33333333E-01  0.00000000E+00
                       5.00000000E-01  3.33333333E-01  0.00000000E+00
                      -3.33333333E-01  3.33333333E-01  0.00000000E+00
                      -1.66666667E-01  3.33333333E-01  0.00000000E+00
                       0.00000000E+00  5.00000000E-01  0.00000000E+00
                       1.66666667E-01  5.00000000E-01  0.00000000E+00
                       3.33333333E-01  5.00000000E-01  0.00000000E+00
                       5.00000000E-01  5.00000000E-01  0.00000000E+00
                       0.00000000E+00  0.00000000E+00  1.66666667E-01
                       1.66666667E-01  0.00000000E+00  1.66666667E-01
                       3.33333333E-01  0.00000000E+00  1.66666667E-01
                       5.00000000E-01  0.00000000E+00  1.66666667E-01
                      -3.33333333E-01  0.00000000E+00  1.66666667E-01
                      -1.66666667E-01  0.00000000E+00  1.66666667E-01
                       0.00000000E+00  1.66666667E-01  1.66666667E-01
                       1.66666667E-01  1.66666667E-01  1.66666667E-01
                       3.33333333E-01  1.66666667E-01  1.66666667E-01
                       5.00000000E-01  1.66666667E-01  1.66666667E-01
                      -3.33333333E-01  1.66666667E-01  1.66666667E-01
                      -1.66666667E-01  1.66666667E-01  1.66666667E-01
                       0.00000000E+00  3.33333333E-01  1.66666667E-01
                       1.66666667E-01  3.33333333E-01  1.66666667E-01
                       3.33333333E-01  3.33333333E-01  1.66666667E-01
                       5.00000000E-01  3.33333333E-01  1.66666667E-01
                      -3.33333333E-01  3.33333333E-01  1.66666667E-01
                      -1.66666667E-01  3.33333333E-01  1.66666667E-01
                       0.00000000E+00  5.00000000E-01  1.66666667E-01
                       1.66666667E-01  5.00000000E-01  1.66666667E-01
                       3.33333333E-01  5.00000000E-01  1.66666667E-01
                       5.00000000E-01  5.00000000E-01  1.66666667E-01
                      -3.33333333E-01  5.00000000E-01  1.66666667E-01
                      -1.66666667E-01  5.00000000E-01  1.66666667E-01
                       0.00000000E+00 -3.33333333E-01  1.66666667E-01
                       1.66666667E-01 -3.33333333E-01  1.66666667E-01
                       3.33333333E-01 -3.33333333E-01  1.66666667E-01
                       5.00000000E-01 -3.33333333E-01  1.66666667E-01
                      -3.33333333E-01 -3.33333333E-01  1.66666667E-01
                      -1.66666667E-01 -3.33333333E-01  1.66666667E-01
                       outvar_i_n : Printing only first  50 k-points.
           kptopt           2
         kptrlatt        6    0    0      0    6    0      0    0    6
          kptrlen      5.75486009E+01
P           mkmem           4
            natom          12
            nband          48
           ndtset           2
            ngfft          45      45      45
             nkpt         112
            nstep         100
             nsym           1
           ntypat           2
              occ      2.000000  2.000000  2.000000  2.000000  2.000000  2.000000
                       2.000000  2.000000  2.000000  2.000000  2.000000  2.000000
                       2.000000  2.000000  2.000000  2.000000  2.000000  2.000000
                       2.000000  2.000000  2.000000  2.000000  2.000000  2.000000
                       2.000000  2.000000  2.000000  2.000000  2.000000  2.000000
                       2.000000  2.000000  2.000000  2.000000  2.000000  2.000000
                       2.000000  2.000000  2.000000  2.000000  2.000000  2.000000
                       2.000000  2.000000  2.000000  2.000000  2.000000  2.000000
        pawecutdg      2.50000000E+01 Hartree
         pawxcdev           0
            rfdir1          1       1       1
            rfdir2          0       0       0
          spgroup           1
           strten1    -2.2081016236E-04 -2.6712594374E-04 -5.8910766237E-04
                      -1.0394819292E-09  1.1972133691E-08  3.4369162211E-08
           strten2    -2.3032963761E-04 -2.5036945713E-04 -5.9854066348E-04
                      -1.5555733112E-08  1.2216185932E-08  2.0955306298E-08
        symmorphi           0
           toldfe      1.00000000E-10 Hartree
           tolmxf      1.00000000E-05
           tsmear      4.00000000E-02 Hartree
            typat      1  1  1  1  2  2  2  2  2  2  2  2
              wtk        0.00463    0.00926    0.00926    0.00463    0.00926    0.00926
                         0.00926    0.00926    0.00926    0.00926    0.00926    0.00926
                         0.00926    0.00926    0.00926    0.00926    0.00463    0.00926
                         0.00926    0.00463    0.00926    0.00926    0.00926    0.00926
                         0.00926    0.00926    0.00926    0.00926    0.00926    0.00926
                         0.00926    0.00926    0.00926    0.00926    0.00926    0.00926
                         0.00926    0.00926    0.00926    0.00926    0.00926    0.00926
                         0.00926    0.00926    0.00926    0.00926    0.00926    0.00926
                         0.00926    0.00926
                       outvars : Printing only first  50 k-points.
           xangst      2.4274315081E-01 -1.8908470272E-02 -1.0977793760E-02
                       2.6231937296E+00  2.5187978735E+00 -3.1466237594E-01
                       2.4294028587E-01  2.5188511670E+00  2.2230772636E+00
                       2.6233807135E+00 -1.8939380481E-02  2.5267504765E+00
                       1.6240384260E+00  1.2625574881E+00  1.0240139130E+00
                       1.2425602070E+00  1.2628181693E+00  3.5617375645E+00
                       4.3106331564E+00  3.2995172260E+00  5.2411096805E-01
                       3.6310436842E+00  3.2991548305E+00  3.0616382458E+00
                       1.6242972292E+00  3.8005234472E+00  1.1882416305E+00
                       1.2423075960E+00  3.8007647397E+00  3.7260898872E+00
                       4.3096974755E+00  7.6339379963E-01  1.6874310521E+00
                       3.6319641892E+00  7.6299460620E-01  4.2254642625E+00
            xcart      4.5871807566E-01 -3.5731830405E-02 -2.0745023750E-02
                       4.9571177424E+00  4.7598381651E+00 -5.9462571486E-01
                       4.5909060694E-01  4.7599388751E+00  4.2010072004E+00
                       4.9574710908E+00 -3.5790242235E-02  4.7748664067E+00
                       3.0689878543E+00  2.3858878796E+00  1.9351058519E+00
                       2.3480984948E+00  2.3863804956E+00  6.7307085542E+00
                       8.1459161250E+00  6.2351839280E+00  9.9042619286E-01
                       6.8616781397E+00  6.2344990996E+00  5.7856578026E+00
                       3.0694769215E+00  7.1819484769E+00  2.2454512614E+00
                       2.3476211292E+00  7.1824044536E+00  7.0412894334E+00
                       8.1441479442E+00  1.4426052128E+00  3.1887825567E+00
                       6.8634176421E+00  1.4418508466E+00  7.9849702405E+00
             xred      4.7825810000E-02 -3.7253900000E-03 -2.1628700000E-03
                       5.1682762000E-01  4.9625931000E-01 -6.1995500000E-02
                       4.7864650000E-02  4.9626981000E-01  4.3799576000E-01
                       5.1686446000E-01 -3.7314800000E-03  4.9782615000E-01
                       3.1997176000E-01  2.4875196000E-01  2.0175356000E-01
                       2.4481205000E-01  2.4880332000E-01  7.0174167000E-01
                       8.4929079000E-01  6.5007842000E-01  1.0326154000E-01
                       7.1539652000E-01  6.5000702000E-01  6.0321096000E-01
                       3.2002275000E-01  7.4878781000E-01  2.3411008000E-01
                       2.4476228000E-01  7.4883535000E-01  7.3412274000E-01
                       8.4910644000E-01  1.5040559000E-01  3.3246152000E-01
                       7.1557788000E-01  1.5032694000E-01  8.3251062000E-01
            znucl       72.00000    8.00000

- Timing analysis has been suppressed with timopt=0

 Suggested references for the acknowledgment of ABINIT usage.

 Calculation completed.
.Delivered   0 WARNINGs and   2 COMMENTs to log file.