.Version 9.4.2 of ABINIT

 ABINIT is a project of the Universite Catholique de Louvain,
 Corning Inc. and other collaborators, see ~abinit/doc/developers/contributors.txt .
 acknowledgments of the ABINIT effort.

.Starting date : Tue 22 Jun 2021.
- ( at 09h18 )

- input  file    -> /p/work1/jiahaoz/HfO4/CUBIC_ITERATE/iterone/P0.20/scf10
- output file    -> /p/work1/jiahaoz/HfO4/CUBIC_ITERATE/iterone/P0.20/scf10.abo
- root for input  files -> i
- root for output files -> o

 DATASET    1 : space group Pn c 2 (# 30); Bravais oP (primitive ortho.)
     intxc =       0    ionmov =       0      iscf =       7    lmnmax =       8
     lnmax =       8     mgfft =      45  mpssoang =       4    mqgrid =    3001
     natom =      12  nloc_mem =       1    nspden =       1   nspinor =       1
    nsppol =       1      nsym =       2    n1xccc =    2501    ntypat =       2
    occopt =       1   xclevel =       2
-    mband =          48        mffmem =           1         mkmem =           4
       mpw =        5294          nfft =       91125          nkpt =         112
  Rough estimation (10% accuracy) of disk space for files :

 DATASET    2 : space group Pn c 2 (# 30); Bravais oP (primitive ortho.)
     intxc =       0    ionmov =       0      iscf =       7    lmnmax =       8
     lnmax =       8     mgfft =      45  mpssoang =       4    mqgrid =    3001
     natom =      12  nloc_mem =       1    nspden =       1   nspinor =       1
    nsppol =       1      nsym =       2    n1xccc =    2501    ntypat =       2
    occopt =       1   xclevel =       2
-    mband =          48        mffmem =           1         mkmem =           4
       mpw =        5294          nfft =       91125          nkpt =         112
  Rough estimation (10% accuracy) of disk space for files :

------------- Echo of variables that govern the present computation ------------
-
- outvars: echo of selected default values
-   iomode0 =  0 , fftalg0 =512 , wfoptalg0 =  0
-
- outvars: echo of global parameters not present in the input file
-  max_nthreads =    0
-
 -outvars: echo values of preprocessed input variables --------
            acell      9.5914334888E+00  9.5914334888E+00  9.5914334888E+00 Bohr
              amu      1.78490000E+02  1.59994000E+01
         berryopt1         -1
         berryopt2          4
          chkprim           0
             ecut      2.50000000E+01 Hartree
           ecutsm      5.00000000E-01 Hartree
           efield      6.52499506E-13  4.86101749E-04  1.18623403E-12
-          fftalg         512
           getwfk1          0
           getwfk2          1
           istwfk        1    0    0    1    0    0    0    0    0    0
                         0    0    0    0    0    0    1    0    0    1
                         0    0    0    0    0    0    0    0    0    0
                         0    0    0    0    0    0    0    0    0    0
                         0    0    0    0    0    0    0    0    0    0
                       outvar_i_n : Printing only first  50 k-points.
              ixc          11
           jdtset        1    2
              kpt      0.00000000E+00  0.00000000E+00  0.00000000E+00
                       1.66666667E-01  0.00000000E+00  0.00000000E+00
                       3.33333333E-01  0.00000000E+00  0.00000000E+00
                       5.00000000E-01  0.00000000E+00  0.00000000E+00
                       0.00000000E+00  1.66666667E-01  0.00000000E+00
                       1.66666667E-01  1.66666667E-01  0.00000000E+00
                       3.33333333E-01  1.66666667E-01  0.00000000E+00
                       5.00000000E-01  1.66666667E-01  0.00000000E+00
                      -3.33333333E-01  1.66666667E-01  0.00000000E+00
                      -1.66666667E-01  1.66666667E-01  0.00000000E+00
                       0.00000000E+00  3.33333333E-01  0.00000000E+00
                       1.66666667E-01  3.33333333E-01  0.00000000E+00
                       3.33333333E-01  3.33333333E-01  0.00000000E+00
                       5.00000000E-01  3.33333333E-01  0.00000000E+00
                      -3.33333333E-01  3.33333333E-01  0.00000000E+00
                      -1.66666667E-01  3.33333333E-01  0.00000000E+00
                       0.00000000E+00  5.00000000E-01  0.00000000E+00
                       1.66666667E-01  5.00000000E-01  0.00000000E+00
                       3.33333333E-01  5.00000000E-01  0.00000000E+00
                       5.00000000E-01  5.00000000E-01  0.00000000E+00
                       0.00000000E+00  0.00000000E+00  1.66666667E-01
                       1.66666667E-01  0.00000000E+00  1.66666667E-01
                       3.33333333E-01  0.00000000E+00  1.66666667E-01
                       5.00000000E-01  0.00000000E+00  1.66666667E-01
                      -3.33333333E-01  0.00000000E+00  1.66666667E-01
                      -1.66666667E-01  0.00000000E+00  1.66666667E-01
                       0.00000000E+00  1.66666667E-01  1.66666667E-01
                       1.66666667E-01  1.66666667E-01  1.66666667E-01
                       3.33333333E-01  1.66666667E-01  1.66666667E-01
                       5.00000000E-01  1.66666667E-01  1.66666667E-01
                      -3.33333333E-01  1.66666667E-01  1.66666667E-01
                      -1.66666667E-01  1.66666667E-01  1.66666667E-01
                       0.00000000E+00  3.33333333E-01  1.66666667E-01
                       1.66666667E-01  3.33333333E-01  1.66666667E-01
                       3.33333333E-01  3.33333333E-01  1.66666667E-01
                       5.00000000E-01  3.33333333E-01  1.66666667E-01
                      -3.33333333E-01  3.33333333E-01  1.66666667E-01
                      -1.66666667E-01  3.33333333E-01  1.66666667E-01
                       0.00000000E+00  5.00000000E-01  1.66666667E-01
                       1.66666667E-01  5.00000000E-01  1.66666667E-01
                       3.33333333E-01  5.00000000E-01  1.66666667E-01
                       5.00000000E-01  5.00000000E-01  1.66666667E-01
                      -3.33333333E-01  5.00000000E-01  1.66666667E-01
                      -1.66666667E-01  5.00000000E-01  1.66666667E-01
                       0.00000000E+00 -3.33333333E-01  1.66666667E-01
                       1.66666667E-01 -3.33333333E-01  1.66666667E-01
                       3.33333333E-01 -3.33333333E-01  1.66666667E-01
                       5.00000000E-01 -3.33333333E-01  1.66666667E-01
                      -3.33333333E-01 -3.33333333E-01  1.66666667E-01
                      -1.66666667E-01 -3.33333333E-01  1.66666667E-01
                       outvar_i_n : Printing only first  50 k-points.
           kptopt           2
         kptrlatt        6    0    0      0    6    0      0    0    6
          kptrlen      5.75486009E+01
P           mkmem           4
            natom          12
            nband          48
           ndtset           2
            ngfft          45      45      45
             nkpt         112
            nstep         100
             nsym           2
           ntypat           2
              occ      2.000000  2.000000  2.000000  2.000000  2.000000  2.000000
                       2.000000  2.000000  2.000000  2.000000  2.000000  2.000000
                       2.000000  2.000000  2.000000  2.000000  2.000000  2.000000
                       2.000000  2.000000  2.000000  2.000000  2.000000  2.000000
                       2.000000  2.000000  2.000000  2.000000  2.000000  2.000000
                       2.000000  2.000000  2.000000  2.000000  2.000000  2.000000
                       2.000000  2.000000  2.000000  2.000000  2.000000  2.000000
                       2.000000  2.000000  2.000000  2.000000  2.000000  2.000000
        pawecutdg      2.50000000E+01 Hartree
         pawxcdev           0
            rfdir1          1       1       1
            rfdir2          0       0       0
          spgroup          30
        symmorphi           0
           symrel      1  0  0   0  1  0   0  0  1      -1  0  0   0  1  0   0  0 -1
           toldfe      1.00000000E-10 Hartree
           tolmxf      1.00000000E-05
           tsmear      4.00000000E-02 Hartree
            typat      1  1  1  1  2  2  2  2  2  2  2  2
              wtk        0.00463    0.00926    0.00926    0.00463    0.00926    0.00926
                         0.00926    0.00926    0.00926    0.00926    0.00926    0.00926
                         0.00926    0.00926    0.00926    0.00926    0.00463    0.00926
                         0.00926    0.00463    0.00926    0.00926    0.00926    0.00926
                         0.00926    0.00926    0.00926    0.00926    0.00926    0.00926
                         0.00926    0.00926    0.00926    0.00926    0.00926    0.00926
                         0.00926    0.00926    0.00926    0.00926    0.00926    0.00926
                         0.00926    0.00926    0.00926    0.00926    0.00926    0.00926
                         0.00926    0.00926
                       outvars : Printing only first  50 k-points.
           xangst      0.0000000000E+00  8.3878176944E-02  0.0000000000E+00
                       2.5377840000E+00  2.6216694604E+00  0.0000000000E+00
                       0.0000000000E+00  2.6216621769E+00  2.5377840000E+00
                       2.5377840000E+00  8.3885460384E-02  2.5377840000E+00
                       1.3325012514E+00  1.2677781412E+00  1.0151269234E+00
                       1.2052679279E+00  1.2676968306E+00  3.5529117608E+00
                       3.8703000721E+00  3.8054808306E+00  1.0151277608E+00
                       3.7430667486E+00  3.8055621412E+00  3.5529109234E+00
                       1.3325012514E+00  3.8055621412E+00  1.5226570766E+00
                       1.2052679279E+00  3.8054808306E+00  4.0604402392E+00
                       3.8703000721E+00  1.2676968306E+00  1.5226562392E+00
                       3.7430667486E+00  1.2677781412E+00  4.0604410766E+00
            xcart      0.0000000000E+00  1.5850678295E-01  0.0000000000E+00
                       4.7957167444E+00  4.9542372911E+00  0.0000000000E+00
                       0.0000000000E+00  4.9542235274E+00  4.7957167444E+00
                       4.7957167444E+00  1.5852054666E-01  4.7957167444E+00
                       2.5180624369E+00  2.3957534842E+00  1.9183118753E+00
                       2.2776263005E+00  2.3955998294E+00  6.7140302023E+00
                       7.3138071883E+00  7.1913165738E+00  1.9183134579E+00
                       7.0733710519E+00  7.1914702286E+00  6.7140286197E+00
                       2.5180624369E+00  7.1914702286E+00  2.8774048691E+00
                       2.2776263005E+00  7.1913165738E+00  7.6731200310E+00
                       7.3138071883E+00  2.3955998294E+00  2.8774032866E+00
                       7.0733710519E+00  2.3957534842E+00  7.6731216136E+00
             xred      0.0000000000E+00  1.6525870000E-02  0.0000000000E+00
                       5.0000000000E-01  5.1652730500E-01  0.0000000000E+00
                       0.0000000000E+00  5.1652587000E-01  5.0000000000E-01
                       5.0000000000E-01  1.6527305000E-02  5.0000000000E-01
[...]
    5     -0.00000178991230    -0.00000404270352    -0.00000344199446
    6      0.00000093661215    -0.00000569824588     0.00000286326194
    7      0.00000092419248     0.00000569600058    -0.00000283909750
    8     -0.00000180240453     0.00000404347156     0.00000345617788
    9      0.00000180240453     0.00000404347156    -0.00000345617788
   10     -0.00000092419248     0.00000569600058     0.00000283909750
   11     -0.00000093661215    -0.00000569824588    -0.00000286326194
   12      0.00000178991230    -0.00000404270352     0.00000344199446
 frms,max,avg= 2.8578046E-06 5.6982459E-06   0.000E+00 -1.335E-06  0.000E+00 h/b

 cartesian forces (eV/Angstrom) at end:
    1      0.00000000000000     0.00000919029533     0.00000000000000
    2      0.00000000000000    -0.00005464853300     0.00000000000000
    3      0.00000000000000    -0.00000917922097     0.00000000000000
    4      0.00000000000000     0.00005478938522     0.00000000000000
    5     -0.00009204098334    -0.00020788415579    -0.00017699445688
    6      0.00004816252907    -0.00029301555968     0.00014723483636
    7      0.00004752388415     0.00029290010199    -0.00014599225087
    8     -0.00009268335967     0.00020792365019     0.00017772379731
    9      0.00009268335967     0.00020792365019    -0.00017772379731
   10     -0.00004752388415     0.00029290010199     0.00014599225087
   11     -0.00004816252907    -0.00029301555968    -0.00014723483636
   12      0.00009204098334    -0.00020788415579     0.00017699445688
 frms,max,avg= 1.4695421E-04 2.9301556E-04   0.000E+00 -6.864E-05  0.000E+00 e/A
 length scales=  9.591433488838  9.591433488838  9.591433488838 bohr
              =  5.075568000000  5.075568000000  5.075568000000 angstroms
 prteigrs : about to open file o_DS2_EIG
 Fermi (or HOMO) energy (hartree) =   0.27669   Average Vxc (hartree)=  -0.44595
 Eigenvalues (hartree) for nkpt= 112  k points:
 kpt#   1, nband= 48, wtk=  0.00463, kpt=  0.0000  0.0000  0.0000 (reduced coord)
  -1.94314   -1.94248   -1.94245   -1.94245   -0.80503   -0.80497   -0.80465   -0.79355
  -0.79287   -0.79249   -0.79186   -0.79141   -0.79123   -0.78813   -0.78670   -0.78665
  -0.39520   -0.33821   -0.32982   -0.32879   -0.31889   -0.31644   -0.31557   -0.29837
   0.06058    0.06085    0.07215    0.09599    0.10316    0.10397    0.16070    0.16368
   0.16653    0.16942    0.17208    0.17212    0.21887    0.22417    0.22429    0.22920
   0.24460    0.25324    0.25325    0.25372    0.25457    0.26577    0.26914    0.27516
 prteigrs : prtvol=0 or 1, do not print more k-points.

--- !EnergyTerms
iteration_state     : {dtset: 2, }
comment             : Components of total free energy in Hartree
kinetic             :  1.46236322194734E+02
hartree             :  5.59998431320980E+01
xc                  : -9.09138811525077E+01
Ewald energy        : -2.70068374403710E+02
psp_core            :  1.49595106529080E+01
local_psp           : -2.05728640647157E+02
non_local_psp       : -9.11834245102015E+00
electric            : -1.51111679859299E-03
kohn_sham           : -3.58633562674654E+02
total_energy        : -3.58635073791453E+02
total_energy_eV     : -9.75895665859865E+03
band_energy         : -3.11121629458099E+01
...

Constant unreduced E calculation  - final values:
 (a. u.)
       E:   6.524995061E-13   4.861017486E-04   1.186234032E-12
       P:   3.149294826E-13   3.503720670E-03   3.049646998E-13

    ebar:   6.258405615E-12   4.662412591E-03   1.137768482E-11
    pbar:   3.795829558E-11   4.223017283E-01   3.675724520E-11

       e:   4.776803346E-12   3.558642478E-03   8.684154758E-12
       p:   2.897212557E-11   3.223268725E-01   2.805540943E-11

 (S.I.), that is V/m for E, and C/m^2 for P
-      E:   3.355287084E-01   2.499635484E+08   6.099860133E-01
       P:   1.801861523E-11   2.004645424E-01   1.744848256E-11

 Please check: COMMENT -
  As a rough estimate,
  to be below the critical field, the bandgap of your system
  should be larger than    0.76 eV.

 Cartesian components of stress tensor (hartree/bohr^3)
  sigma(1 1)= -1.87740242E-04  sigma(3 2)=  0.00000000E+00
  sigma(2 2)= -1.96846302E-04  sigma(3 1)= -3.22218783E-09
  sigma(3 3)= -4.87198868E-04  sigma(2 1)=  0.00000000E+00

-Cartesian components of stress tensor (GPa)         [Pressure=  8.5496E+00 GPa]
- sigma(1 1)= -5.52350769E+00  sigma(3 2)=  0.00000000E+00
- sigma(2 2)= -5.79141718E+00  sigma(3 1)= -9.48000229E-05
- sigma(3 3)= -1.43338832E+01  sigma(2 1)=  0.00000000E+00

== END DATASET(S) ==============================================================

 -outvars: echo values of variables after computation  --------
            acell      9.5914334888E+00  9.5914334888E+00  9.5914334888E+00 Bohr
              amu      1.78490000E+02  1.59994000E+01
         berryopt1         -1
         berryopt2          4
          chkprim           0
             ecut      2.50000000E+01 Hartree
           ecutsm      5.00000000E-01 Hartree
           efield      6.52499506E-13  4.86101749E-04  1.18623403E-12
           etotal1    -3.5863359619E+02
           etotal2    -3.5863507379E+02
            fcart1     0.0000000000E+00 -2.6720250305E-03  1.1293772630E-21
                       0.0000000000E+00 -2.6714508881E-03  1.1293772630E-21
                       0.0000000000E+00 -2.6707118732E-03  1.1293772630E-21
                       0.0000000000E+00 -2.6709528851E-03  1.1293772630E-21
                       2.9783667047E-04  1.3316998223E-03 -5.9785809085E-05
                      -2.9861899982E-04  1.3300250410E-03 -5.3582264579E-05
                       3.0045589044E-04  1.3412412519E-03 -5.9120203979E-05
                      -3.0142455621E-04  1.3396042232E-03 -5.3068820852E-05
                       3.0142455621E-04  1.3396042232E-03  5.3068820852E-05
                      -3.0045589044E-04  1.3412412519E-03  5.9120203979E-05
                       2.9861899982E-04  1.3300250410E-03  5.3582264579E-05
                      -2.9783667047E-04  1.3316998223E-03  5.9785809085E-05
            fcart2     0.0000000000E+00  1.7872280423E-07  0.0000000000E+00
                       0.0000000000E+00 -1.0627448532E-06  0.0000000000E+00
                       0.0000000000E+00 -1.7850744222E-07  0.0000000000E+00
                       0.0000000000E+00  1.0654839931E-06  0.0000000000E+00
                      -1.7899122989E-06 -4.0427035184E-06 -3.4419944650E-06
                       9.3661214810E-07 -5.6982458791E-06  2.8632619390E-06
                       9.2419248075E-07  5.6960005844E-06 -2.8390974964E-06
                      -1.8024045307E-06  4.0434715622E-06  3.4561778793E-06
                       1.8024045307E-06  4.0434715622E-06 -3.4561778793E-06
                      -9.2419248075E-07  5.6960005844E-06  2.8390974964E-06
                      -9.3661214810E-07 -5.6982458791E-06 -2.8632619390E-06
                       1.7899122989E-06 -4.0427035184E-06  3.4419944650E-06
-          fftalg         512
           getwfk1          0
           getwfk2          1
           istwfk        1    0    0    1    0    0    0    0    0    0
                         0    0    0    0    0    0    1    0    0    1
                         0    0    0    0    0    0    0    0    0    0
                         0    0    0    0    0    0    0    0    0    0
                         0    0    0    0    0    0    0    0    0    0
                       outvar_i_n : Printing only first  50 k-points.
              ixc          11
           jdtset        1    2
              kpt      0.00000000E+00  0.00000000E+00  0.00000000E+00
                       1.66666667E-01  0.00000000E+00  0.00000000E+00
                       3.33333333E-01  0.00000000E+00  0.00000000E+00
                       5.00000000E-01  0.00000000E+00  0.00000000E+00
                       0.00000000E+00  1.66666667E-01  0.00000000E+00
                       1.66666667E-01  1.66666667E-01  0.00000000E+00
                       3.33333333E-01  1.66666667E-01  0.00000000E+00
                       5.00000000E-01  1.66666667E-01  0.00000000E+00
                      -3.33333333E-01  1.66666667E-01  0.00000000E+00
                      -1.66666667E-01  1.66666667E-01  0.00000000E+00
                       0.00000000E+00  3.33333333E-01  0.00000000E+00
                       1.66666667E-01  3.33333333E-01  0.00000000E+00
                       3.33333333E-01  3.33333333E-01  0.00000000E+00
                       5.00000000E-01  3.33333333E-01  0.00000000E+00
                      -3.33333333E-01  3.33333333E-01  0.00000000E+00
                      -1.66666667E-01  3.33333333E-01  0.00000000E+00
                       0.00000000E+00  5.00000000E-01  0.00000000E+00
                       1.66666667E-01  5.00000000E-01  0.00000000E+00
                       3.33333333E-01  5.00000000E-01  0.00000000E+00
                       5.00000000E-01  5.00000000E-01  0.00000000E+00
                       0.00000000E+00  0.00000000E+00  1.66666667E-01
                       1.66666667E-01  0.00000000E+00  1.66666667E-01
                       3.33333333E-01  0.00000000E+00  1.66666667E-01
                       5.00000000E-01  0.00000000E+00  1.66666667E-01
                      -3.33333333E-01  0.00000000E+00  1.66666667E-01
                      -1.66666667E-01  0.00000000E+00  1.66666667E-01
                       0.00000000E+00  1.66666667E-01  1.66666667E-01
                       1.66666667E-01  1.66666667E-01  1.66666667E-01
                       3.33333333E-01  1.66666667E-01  1.66666667E-01
                       5.00000000E-01  1.66666667E-01  1.66666667E-01
                      -3.33333333E-01  1.66666667E-01  1.66666667E-01
                      -1.66666667E-01  1.66666667E-01  1.66666667E-01
                       0.00000000E+00  3.33333333E-01  1.66666667E-01
                       1.66666667E-01  3.33333333E-01  1.66666667E-01
                       3.33333333E-01  3.33333333E-01  1.66666667E-01
                       5.00000000E-01  3.33333333E-01  1.66666667E-01
                      -3.33333333E-01  3.33333333E-01  1.66666667E-01
                      -1.66666667E-01  3.33333333E-01  1.66666667E-01
                       0.00000000E+00  5.00000000E-01  1.66666667E-01
                       1.66666667E-01  5.00000000E-01  1.66666667E-01
                       3.33333333E-01  5.00000000E-01  1.66666667E-01
                       5.00000000E-01  5.00000000E-01  1.66666667E-01
                      -3.33333333E-01  5.00000000E-01  1.66666667E-01
                      -1.66666667E-01  5.00000000E-01  1.66666667E-01
                       0.00000000E+00 -3.33333333E-01  1.66666667E-01
                       1.66666667E-01 -3.33333333E-01  1.66666667E-01
                       3.33333333E-01 -3.33333333E-01  1.66666667E-01
                       5.00000000E-01 -3.33333333E-01  1.66666667E-01
                      -3.33333333E-01 -3.33333333E-01  1.66666667E-01
                      -1.66666667E-01 -3.33333333E-01  1.66666667E-01
                       outvar_i_n : Printing only first  50 k-points.
           kptopt           2
         kptrlatt        6    0    0      0    6    0      0    0    6
          kptrlen      5.75486009E+01
P           mkmem           4
            natom          12
            nband          48
           ndtset           2
            ngfft          45      45      45
             nkpt         112
            nstep         100
             nsym           2
           ntypat           2
              occ      2.000000  2.000000  2.000000  2.000000  2.000000  2.000000
                       2.000000  2.000000  2.000000  2.000000  2.000000  2.000000
                       2.000000  2.000000  2.000000  2.000000  2.000000  2.000000
                       2.000000  2.000000  2.000000  2.000000  2.000000  2.000000
                       2.000000  2.000000  2.000000  2.000000  2.000000  2.000000
                       2.000000  2.000000  2.000000  2.000000  2.000000  2.000000
                       2.000000  2.000000  2.000000  2.000000  2.000000  2.000000
                       2.000000  2.000000  2.000000  2.000000  2.000000  2.000000
        pawecutdg      2.50000000E+01 Hartree
         pawxcdev           0
            rfdir1          1       1       1
            rfdir2          0       0       0
          spgroup          30
           strten1    -1.8894574068E-04 -1.9476463774E-04 -4.8809917781E-04
                       0.0000000000E+00 -3.2786192238E-09  0.0000000000E+00
           strten2    -1.8774024204E-04 -1.9684630221E-04 -4.8719886772E-04
                       0.0000000000E+00 -3.2221878272E-09  0.0000000000E+00
        symmorphi           0
           symrel      1  0  0   0  1  0   0  0  1      -1  0  0   0  1  0   0  0 -1
           toldfe      1.00000000E-10 Hartree
           tolmxf      1.00000000E-05
           tsmear      4.00000000E-02 Hartree
            typat      1  1  1  1  2  2  2  2  2  2  2  2
              wtk        0.00463    0.00926    0.00926    0.00463    0.00926    0.00926
                         0.00926    0.00926    0.00926    0.00926    0.00926    0.00926
                         0.00926    0.00926    0.00926    0.00926    0.00463    0.00926
                         0.00926    0.00463    0.00926    0.00926    0.00926    0.00926
                         0.00926    0.00926    0.00926    0.00926    0.00926    0.00926
                         0.00926    0.00926    0.00926    0.00926    0.00926    0.00926
                         0.00926    0.00926    0.00926    0.00926    0.00926    0.00926
                         0.00926    0.00926    0.00926    0.00926    0.00926    0.00926
                         0.00926    0.00926
                       outvars : Printing only first  50 k-points.
           xangst      0.0000000000E+00  8.3878176944E-02  0.0000000000E+00
                       2.5377840000E+00  2.6216694604E+00  0.0000000000E+00
                       0.0000000000E+00  2.6216621769E+00  2.5377840000E+00
                       2.5377840000E+00  8.3885460384E-02  2.5377840000E+00
                       1.3325012514E+00  1.2677781412E+00  1.0151269234E+00
                       1.2052679279E+00  1.2676968306E+00  3.5529117608E+00
                       3.8703000721E+00  3.8054808306E+00  1.0151277608E+00
                       3.7430667486E+00  3.8055621412E+00  3.5529109234E+00
                       1.3325012514E+00  3.8055621412E+00  1.5226570766E+00
                       1.2052679279E+00  3.8054808306E+00  4.0604402392E+00
                       3.8703000721E+00  1.2676968306E+00  1.5226562392E+00
                       3.7430667486E+00  1.2677781412E+00  4.0604410766E+00
            xcart      0.0000000000E+00  1.5850678295E-01  0.0000000000E+00
                       4.7957167444E+00  4.9542372911E+00  0.0000000000E+00
                       0.0000000000E+00  4.9542235274E+00  4.7957167444E+00
                       4.7957167444E+00  1.5852054666E-01  4.7957167444E+00
                       2.5180624369E+00  2.3957534842E+00  1.9183118753E+00
                       2.2776263005E+00  2.3955998294E+00  6.7140302023E+00
                       7.3138071883E+00  7.1913165738E+00  1.9183134579E+00
                       7.0733710519E+00  7.1914702286E+00  6.7140286197E+00
                       2.5180624369E+00  7.1914702286E+00  2.8774048691E+00
                       2.2776263005E+00  7.1913165738E+00  7.6731200310E+00
                       7.3138071883E+00  2.3955998294E+00  2.8774032866E+00
                       7.0733710519E+00  2.3957534842E+00  7.6731216136E+00
             xred      0.0000000000E+00  1.6525870000E-02  0.0000000000E+00
                       5.0000000000E-01  5.1652730500E-01  0.0000000000E+00
                       0.0000000000E+00  5.1652587000E-01  5.0000000000E-01
                       5.0000000000E-01  1.6527305000E-02  5.0000000000E-01
                       2.6253244000E-01  2.4978054500E-01  2.0000262500E-01
                       2.3746464000E-01  2.4976452500E-01  7.0000279000E-01
                       7.6253536000E-01  7.4976452500E-01  2.0000279000E-01
                       7.3746756000E-01  7.4978054500E-01  7.0000262500E-01
                       2.6253244000E-01  7.4978054500E-01  2.9999737500E-01
                       2.3746464000E-01  7.4976452500E-01  7.9999721000E-01
                       7.6253536000E-01  2.4976452500E-01  2.9999721000E-01
                       7.3746756000E-01  2.4978054500E-01  7.9999737500E-01
            znucl       72.00000    8.00000

- Timing analysis has been suppressed with timopt=0

 Suggested references for the acknowledgment of ABINIT usage.

 Calculation completed.
.Delivered   0 WARNINGs and   2 COMMENTs to log file.