.Version 9.4.2 of ABINIT

 ABINIT is a project of the Universite Catholique de Louvain,
 Corning Inc. and other collaborators, see ~abinit/doc/developers/contributors.txt .
 acknowledgments of the ABINIT effort.

.Starting date : Sun 20 Jun 2021.
- ( at 05h50 )

- input  file    -> /p/work1/jiahaoz/HfO4/CUBIC_ITERATE/itertwo/P-0.05/scf0
- output file    -> /p/work1/jiahaoz/HfO4/CUBIC_ITERATE/itertwo/P-0.05/scf0.abo
- root for input  files -> i
- root for output files -> o

 DATASET    1 : space group P1 (#  1); Bravais aP (primitive triclinic)
     intxc =       0    ionmov =       0      iscf =       7    lmnmax =       8
     lnmax =       8     mgfft =      45  mpssoang =       4    mqgrid =    3001
     natom =      12  nloc_mem =       1    nspden =       1   nspinor =       1
    nsppol =       1      nsym =       1    n1xccc =    2501    ntypat =       2
    occopt =       1   xclevel =       2
-    mband =          48        mffmem =           1         mkmem =           4
       mpw =        5294          nfft =       91125          nkpt =         112
  Rough estimation (10% accuracy) of disk space for files :

 DATASET    2 : space group P1 (#  1); Bravais aP (primitive triclinic)
     intxc =       0    ionmov =       0      iscf =       7    lmnmax =       8
     lnmax =       8     mgfft =      45  mpssoang =       4    mqgrid =    3001
     natom =      12  nloc_mem =       1    nspden =       1   nspinor =       1
    nsppol =       1      nsym =       1    n1xccc =    2501    ntypat =       2
    occopt =       1   xclevel =       2
-    mband =          48        mffmem =           1         mkmem =           4
       mpw =        5294          nfft =       91125          nkpt =         112
  Rough estimation (10% accuracy) of disk space for files :

------------- Echo of variables that govern the present computation ------------
-
- outvars: echo of selected default values
-   iomode0 =  0 , fftalg0 =512 , wfoptalg0 =  0
-
- outvars: echo of global parameters not present in the input file
-  max_nthreads =    0
-
 -outvars: echo values of preprocessed input variables --------
            acell      9.5914334888E+00  9.5914334888E+00  9.5914334888E+00 Bohr
              amu      1.78490000E+02  1.59994000E+01
         berryopt1         -1
         berryopt2          4
          chkprim           0
             ecut      2.50000000E+01 Hartree
           ecutsm      5.00000000E-01 Hartree
-          fftalg         512
           getwfk1          0
           getwfk2          1
           istwfk        1    0    0    1    0    0    0    0    0    0
                         0    0    0    0    0    0    1    0    0    1
                         0    0    0    0    0    0    0    0    0    0
                         0    0    0    0    0    0    0    0    0    0
                         0    0    0    0    0    0    0    0    0    0
                       outvar_i_n : Printing only first  50 k-points.
              ixc          11
           jdtset        1    2
              kpt      0.00000000E+00  0.00000000E+00  0.00000000E+00
                       1.66666667E-01  0.00000000E+00  0.00000000E+00
                       3.33333333E-01  0.00000000E+00  0.00000000E+00
                       5.00000000E-01  0.00000000E+00  0.00000000E+00
                       0.00000000E+00  1.66666667E-01  0.00000000E+00
                       1.66666667E-01  1.66666667E-01  0.00000000E+00
                       3.33333333E-01  1.66666667E-01  0.00000000E+00
                       5.00000000E-01  1.66666667E-01  0.00000000E+00
                      -3.33333333E-01  1.66666667E-01  0.00000000E+00
                      -1.66666667E-01  1.66666667E-01  0.00000000E+00
                       0.00000000E+00  3.33333333E-01  0.00000000E+00
                       1.66666667E-01  3.33333333E-01  0.00000000E+00
                       3.33333333E-01  3.33333333E-01  0.00000000E+00
                       5.00000000E-01  3.33333333E-01  0.00000000E+00
                      -3.33333333E-01  3.33333333E-01  0.00000000E+00
                      -1.66666667E-01  3.33333333E-01  0.00000000E+00
                       0.00000000E+00  5.00000000E-01  0.00000000E+00
                       1.66666667E-01  5.00000000E-01  0.00000000E+00
                       3.33333333E-01  5.00000000E-01  0.00000000E+00
                       5.00000000E-01  5.00000000E-01  0.00000000E+00
                       0.00000000E+00  0.00000000E+00  1.66666667E-01
                       1.66666667E-01  0.00000000E+00  1.66666667E-01
                       3.33333333E-01  0.00000000E+00  1.66666667E-01
                       5.00000000E-01  0.00000000E+00  1.66666667E-01
                      -3.33333333E-01  0.00000000E+00  1.66666667E-01
                      -1.66666667E-01  0.00000000E+00  1.66666667E-01
                       0.00000000E+00  1.66666667E-01  1.66666667E-01
                       1.66666667E-01  1.66666667E-01  1.66666667E-01
                       3.33333333E-01  1.66666667E-01  1.66666667E-01
                       5.00000000E-01  1.66666667E-01  1.66666667E-01
                      -3.33333333E-01  1.66666667E-01  1.66666667E-01
                      -1.66666667E-01  1.66666667E-01  1.66666667E-01
                       0.00000000E+00  3.33333333E-01  1.66666667E-01
                       1.66666667E-01  3.33333333E-01  1.66666667E-01
                       3.33333333E-01  3.33333333E-01  1.66666667E-01
                       5.00000000E-01  3.33333333E-01  1.66666667E-01
                      -3.33333333E-01  3.33333333E-01  1.66666667E-01
                      -1.66666667E-01  3.33333333E-01  1.66666667E-01
                       0.00000000E+00  5.00000000E-01  1.66666667E-01
                       1.66666667E-01  5.00000000E-01  1.66666667E-01
                       3.33333333E-01  5.00000000E-01  1.66666667E-01
                       5.00000000E-01  5.00000000E-01  1.66666667E-01
                      -3.33333333E-01  5.00000000E-01  1.66666667E-01
                      -1.66666667E-01  5.00000000E-01  1.66666667E-01
                       0.00000000E+00 -3.33333333E-01  1.66666667E-01
                       1.66666667E-01 -3.33333333E-01  1.66666667E-01
                       3.33333333E-01 -3.33333333E-01  1.66666667E-01
                       5.00000000E-01 -3.33333333E-01  1.66666667E-01
                      -3.33333333E-01 -3.33333333E-01  1.66666667E-01
                      -1.66666667E-01 -3.33333333E-01  1.66666667E-01
                       outvar_i_n : Printing only first  50 k-points.
           kptopt           2
         kptrlatt        6    0    0      0    6    0      0    0    6
          kptrlen      5.75486009E+01
P           mkmem           4
            natom          12
            nband          48
           ndtset           2
            ngfft          45      45      45
             nkpt         112
            nstep         100
             nsym           1
           ntypat           2
              occ      2.000000  2.000000  2.000000  2.000000  2.000000  2.000000
                       2.000000  2.000000  2.000000  2.000000  2.000000  2.000000
                       2.000000  2.000000  2.000000  2.000000  2.000000  2.000000
                       2.000000  2.000000  2.000000  2.000000  2.000000  2.000000
                       2.000000  2.000000  2.000000  2.000000  2.000000  2.000000
                       2.000000  2.000000  2.000000  2.000000  2.000000  2.000000
                       2.000000  2.000000  2.000000  2.000000  2.000000  2.000000
                       2.000000  2.000000  2.000000  2.000000  2.000000  2.000000
        pawecutdg      2.50000000E+01 Hartree
         pawxcdev           0
            rfdir1          1       1       1
            rfdir2          0       0       0
          spgroup           1
        symmorphi           0
           toldfe      1.00000000E-10 Hartree
           tolmxf      1.00000000E-05
           tsmear      4.00000000E-02 Hartree
            typat      1  1  1  1  2  2  2  2  2  2  2  2
              wtk        0.00463    0.00926    0.00926    0.00463    0.00926    0.00926
                         0.00926    0.00926    0.00926    0.00926    0.00926    0.00926
                         0.00926    0.00926    0.00926    0.00926    0.00463    0.00926
                         0.00926    0.00463    0.00926    0.00926    0.00926    0.00926
                         0.00926    0.00926    0.00926    0.00926    0.00926    0.00926
                         0.00926    0.00926    0.00926    0.00926    0.00926    0.00926
                         0.00926    0.00926    0.00926    0.00926    0.00926    0.00926
                         0.00926    0.00926    0.00926    0.00926    0.00926    0.00926
                         0.00926    0.00926
                       outvars : Printing only first  50 k-points.
           xangst      6.4949961734E-03  2.1317610256E-02 -7.9664407841E-03
                       2.3780477122E+00  2.5592246356E+00 -3.1839020019E-01
                       6.3144000967E-03  2.5592309972E+00  2.2191955923E+00
                       2.3779507503E+00  2.1381498684E-02  2.5299725800E+00
                       1.3992738606E+00  1.2752252551E+00  1.0380785777E+00
                       9.8550694997E-01  1.2754717057E+00  3.5757933294E+00
                       4.0990719159E+00  3.2597651975E+00  4.9912572967E-01
                       3.3615228256E+00  3.2599352084E+00  3.0375205001E+00
                       1.3993468121E+00  3.8127689644E+00  1.1734918986E+00
                       9.8573891556E-01  3.8129415928E+00  3.7111812330E+00
                       4.0995858807E+00  7.2043047539E-01  1.7125297190E+00
                       3.3602930627E+00  7.2017828051E-01  4.2509441086E+00
            xcart      1.2273764002E-02  4.0284445192E-02 -1.5054391336E-02
                       4.4938589069E+00  4.8362336739E+00 -6.0167028175E-01
                       1.1932486876E-02  4.8362456955E+00  4.1936719048E+00
                       4.4936756756E+00  4.0405176824E-02  4.7809552999E+00
                       2.6442443814E+00  2.4098264899E+00  1.9616842163E+00
                       1.8623382375E+00  2.4102922141E+00  6.7572701005E+00
                       7.7461233200E+00  6.1600634808E+00  9.4321093495E-01
                       6.3523575298E+00  6.1603847547E+00  5.7400818683E+00
                       2.6443822398E+00  7.2050891508E+00  2.2175783075E+00
                       1.8627765889E+00  7.2054153710E+00  7.0131161599E+00
                       7.7470945728E+00  1.3614162963E+00  3.2362121633E+00
                       6.3500336148E+00  1.3609397170E+00  8.0331201714E+00
             xred      1.2796589807E-03  4.2000442623E-03 -1.5695663587E-03
                       4.6852839173E-01  5.0422428300E-01 -6.2729964447E-02
                       1.2440775292E-03  5.0422553637E-01  4.3723098426E-01
                       4.6850928809E-01  4.2126317063E-03  4.9846097619E-01
                       2.7568813196E-01  2.5124779239E-01  2.0452461236E-01
                       1.9416683019E-01  2.5129634865E-01  7.0451096891E-01
[...]
    3     -0.00000216643039     0.00000070898301     0.00000505297908
    4      0.00000108695876     0.00000521466364     0.00000375991930
    5     -0.00001293933228    -0.00001288428506    -0.00001290108338
    6      0.00001546636875    -0.00001614789797    -0.00001622659111
    7      0.00002122907185     0.00001441173617     0.00000673003231
    8     -0.00001730819977     0.00001482077921     0.00000282494655
    9     -0.00001545949849    -0.00001790540536     0.00001184125799
   10      0.00001311254755    -0.00001529019290     0.00001580990623
   11      0.00001639686807     0.00001455136041    -0.00000176881277
   12     -0.00001820916478     0.00001211114913    -0.00000747892521
 frms,max,avg= 1.1778384E-05 2.1229072E-05   3.194E-05 -6.259E-07 -7.763E-07 h/b

 cartesian forces (eV/Angstrom) at end:
    1      0.00001195662835     0.00000585370819    -0.00002526466645
    2     -0.00007413563544     0.00001518355745    -0.00036778650624
    3     -0.00011140232026     0.00003645736926     0.00025983460979
    4      0.00005589366186     0.00026814876333     0.00019334280805
    5     -0.00066536716197    -0.00066253652031    -0.00066340032497
    6      0.00079531259136    -0.00083035822999    -0.00083440479352
    7      0.00109164267396     0.00074108120806     0.00034607214675
    8     -0.00089002334252     0.00076211504498     0.00014526457992
    9     -0.00079495930849    -0.00092073288576     0.00060890191649
   10      0.00067427424888    -0.00078625326542     0.00081297799736
   11      0.00084316078603     0.00074826097430    -0.00009095600223
   12     -0.00093635282177     0.00062278027592    -0.00038458176496
 frms,max,avg= 6.0566879E-04 1.0916427E-03   1.642E-03 -3.218E-05 -3.992E-05 e/A
 length scales=  9.591433488838  9.591433488838  9.591433488838 bohr
              =  5.075568000000  5.075568000000  5.075568000000 angstroms
 prteigrs : about to open file o_DS2_EIG
 Fermi (or HOMO) energy (hartree) =   0.27924   Average Vxc (hartree)=  -0.44623
 Eigenvalues (hartree) for nkpt= 112  k points:
 kpt#   1, nband= 48, wtk=  0.00463, kpt=  0.0000  0.0000  0.0000 (reduced coord)
  -1.94364   -1.94289   -1.94282   -1.94279   -0.80680   -0.80624   -0.80623   -0.79600
  -0.79339   -0.79324   -0.79317   -0.79308   -0.79211   -0.78805   -0.78802   -0.78763
  -0.39869   -0.34531   -0.34131   -0.33600   -0.31906   -0.31091   -0.30982   -0.30942
   0.06808    0.07114    0.07500    0.10039    0.10845    0.10958    0.15922    0.15957
   0.16000    0.16050    0.17654    0.18958    0.19793    0.20535    0.20663    0.21439
   0.22824    0.23057    0.23443    0.23795    0.24520    0.26541    0.27890    0.27924
 prteigrs : prtvol=0 or 1, do not print more k-points.

--- !EnergyTerms
iteration_state     : {dtset: 2, }
comment             : Components of total free energy in Hartree
kinetic             :  1.46303146847103E+02
hartree             :  5.62578967982548E+01
xc                  : -9.09278968984538E+01
Ewald energy        : -2.69576305565099E+02
psp_core            :  1.49595106529080E+01
local_psp           : -2.06535253203806E+02
non_local_psp       : -9.12134137843381E+00
electric            :  0.00000000000000E+00
kohn_sham           : -3.58640242747527E+02
total_energy        : -3.58640242747527E+02
total_energy_eV     : -9.75909731304654E+03
band_energy         : -3.13541544365811E+01
...

Constant unreduced E calculation  - final values:
 (a. u.)
       E:   0.000000000E+00   0.000000000E+00   0.000000000E+00
       P:  -9.213549657E-06   1.000275681E-02  -3.954873562E-06

    ebar:   0.000000000E+00   0.000000000E+00   0.000000000E+00
    pbar:  -1.110504607E-03   1.205627356E+00  -4.766789644E-04

       e:   0.000000000E+00   0.000000000E+00   0.000000000E+00
       p:  -8.476059954E-04   9.202095782E-01  -3.638309519E-04

 (S.I.), that is V/m for E, and C/m^2 for P
-      E:   0.000000000E+00   0.000000000E+00   0.000000000E+00
       P:  -5.271510460E-04   5.723053451E-01  -2.262771475E-04

 Please check: COMMENT -
  As a rough estimate,
  to be below the critical field, the bandgap of your system
  should be larger than    0.00 eV.

 Cartesian components of stress tensor (hartree/bohr^3)
  sigma(1 1)= -1.99008100E-04  sigma(3 2)= -3.64570717E-08
  sigma(2 2)= -2.22153022E-04  sigma(3 1)=  4.95568497E-09
  sigma(3 3)= -5.62370896E-04  sigma(2 1)=  1.06139334E-07

-Cartesian components of stress tensor (GPa)         [Pressure=  9.6455E+00 GPa]
- sigma(1 1)= -5.85501945E+00  sigma(3 2)= -1.07260390E-03
- sigma(2 2)= -6.53596646E+00  sigma(3 1)=  1.45801261E-04
- sigma(3 3)= -1.65455202E+01  sigma(2 1)=  3.12272650E-03

== END DATASET(S) ==============================================================

 -outvars: echo values of variables after computation  --------
            acell      9.5914334888E+00  9.5914334888E+00  9.5914334888E+00 Bohr
              amu      1.78490000E+02  1.59994000E+01
         berryopt1         -1
         berryopt2          4
          chkprim           0
             ecut      2.50000000E+01 Hartree
           ecutsm      5.00000000E-01 Hartree
           etotal1    -3.5864024275E+02
           etotal2    -3.5864024275E+02
            fcart1     3.9662242575E-07  4.3960019169E-07  1.8759516004E-07
                      -1.7408539712E-06 -9.9721666861E-08 -6.3011755735E-06
                      -1.7875429787E-06  1.0455888619E-07  4.1334477362E-06
                       7.8709830230E-07  5.7768921621E-06  2.9299428207E-06
                      -1.2688587383E-05 -1.2816630956E-05 -1.2773529285E-05
                       1.5162386657E-05 -1.6111000308E-05 -1.6157949987E-05
                       2.0903858153E-05  1.4408613421E-05  6.7140733385E-06
                      -1.7123076933E-05  1.4881952270E-05  2.8047173729E-06
                      -1.5049912374E-05 -1.7910322457E-05  1.2042938903E-05
                       1.2863767061E-05 -1.5227698666E-05  1.5614058746E-05
                       1.6219912832E-05  1.4513441349E-05 -1.5257247671E-06
                      -1.7943671792E-05  1.2040315774E-05 -7.6683944645E-06
            fcart2     2.3251942088E-07  1.1383650951E-07 -4.9131957916E-07
                      -1.4417086915E-06  2.9527320580E-07 -7.1523094058E-06
                      -2.1664303869E-06  7.0898301233E-07  5.0529790845E-06
                       1.0869587565E-06  5.2146636420E-06  3.7599193041E-06
                      -1.2939332276E-05 -1.2884285056E-05 -1.2901083383E-05
                       1.5466368753E-05 -1.6147897973E-05 -1.6226591111E-05
                       2.1229071846E-05  1.4411736170E-05  6.7300323104E-06
                      -1.7308199774E-05  1.4820779208E-05  2.8249465482E-06
                      -1.5459498494E-05 -1.7905405357E-05  1.1841257987E-05
                       1.3112547553E-05 -1.5290192898E-05  1.5809906233E-05
                       1.6396868070E-05  1.4551360405E-05 -1.7688127739E-06
                      -1.8209164776E-05  1.2111149130E-05 -7.4789252140E-06
-          fftalg         512
           getwfk1          0
           getwfk2          1
           istwfk        1    0    0    1    0    0    0    0    0    0
                         0    0    0    0    0    0    1    0    0    1
                         0    0    0    0    0    0    0    0    0    0
                         0    0    0    0    0    0    0    0    0    0
                         0    0    0    0    0    0    0    0    0    0
                       outvar_i_n : Printing only first  50 k-points.
              ixc          11
           jdtset        1    2
              kpt      0.00000000E+00  0.00000000E+00  0.00000000E+00
                       1.66666667E-01  0.00000000E+00  0.00000000E+00
                       3.33333333E-01  0.00000000E+00  0.00000000E+00
                       5.00000000E-01  0.00000000E+00  0.00000000E+00
                       0.00000000E+00  1.66666667E-01  0.00000000E+00
                       1.66666667E-01  1.66666667E-01  0.00000000E+00
                       3.33333333E-01  1.66666667E-01  0.00000000E+00
                       5.00000000E-01  1.66666667E-01  0.00000000E+00
                      -3.33333333E-01  1.66666667E-01  0.00000000E+00
                      -1.66666667E-01  1.66666667E-01  0.00000000E+00
                       0.00000000E+00  3.33333333E-01  0.00000000E+00
                       1.66666667E-01  3.33333333E-01  0.00000000E+00
                       3.33333333E-01  3.33333333E-01  0.00000000E+00
                       5.00000000E-01  3.33333333E-01  0.00000000E+00
                      -3.33333333E-01  3.33333333E-01  0.00000000E+00
                      -1.66666667E-01  3.33333333E-01  0.00000000E+00
                       0.00000000E+00  5.00000000E-01  0.00000000E+00
                       1.66666667E-01  5.00000000E-01  0.00000000E+00
                       3.33333333E-01  5.00000000E-01  0.00000000E+00
                       5.00000000E-01  5.00000000E-01  0.00000000E+00
                       0.00000000E+00  0.00000000E+00  1.66666667E-01
                       1.66666667E-01  0.00000000E+00  1.66666667E-01
                       3.33333333E-01  0.00000000E+00  1.66666667E-01
                       5.00000000E-01  0.00000000E+00  1.66666667E-01
                      -3.33333333E-01  0.00000000E+00  1.66666667E-01
                      -1.66666667E-01  0.00000000E+00  1.66666667E-01
                       0.00000000E+00  1.66666667E-01  1.66666667E-01
                       1.66666667E-01  1.66666667E-01  1.66666667E-01
                       3.33333333E-01  1.66666667E-01  1.66666667E-01
                       5.00000000E-01  1.66666667E-01  1.66666667E-01
                      -3.33333333E-01  1.66666667E-01  1.66666667E-01
                      -1.66666667E-01  1.66666667E-01  1.66666667E-01
                       0.00000000E+00  3.33333333E-01  1.66666667E-01
                       1.66666667E-01  3.33333333E-01  1.66666667E-01
                       3.33333333E-01  3.33333333E-01  1.66666667E-01
                       5.00000000E-01  3.33333333E-01  1.66666667E-01
                      -3.33333333E-01  3.33333333E-01  1.66666667E-01
                      -1.66666667E-01  3.33333333E-01  1.66666667E-01
                       0.00000000E+00  5.00000000E-01  1.66666667E-01
                       1.66666667E-01  5.00000000E-01  1.66666667E-01
                       3.33333333E-01  5.00000000E-01  1.66666667E-01
                       5.00000000E-01  5.00000000E-01  1.66666667E-01
                      -3.33333333E-01  5.00000000E-01  1.66666667E-01
                      -1.66666667E-01  5.00000000E-01  1.66666667E-01
                       0.00000000E+00 -3.33333333E-01  1.66666667E-01
                       1.66666667E-01 -3.33333333E-01  1.66666667E-01
                       3.33333333E-01 -3.33333333E-01  1.66666667E-01
                       5.00000000E-01 -3.33333333E-01  1.66666667E-01
                      -3.33333333E-01 -3.33333333E-01  1.66666667E-01
                      -1.66666667E-01 -3.33333333E-01  1.66666667E-01
                       outvar_i_n : Printing only first  50 k-points.
           kptopt           2
         kptrlatt        6    0    0      0    6    0      0    0    6
          kptrlen      5.75486009E+01
P           mkmem           4
            natom          12
            nband          48
           ndtset           2
            ngfft          45      45      45
             nkpt         112
            nstep         100
             nsym           1
           ntypat           2
              occ      2.000000  2.000000  2.000000  2.000000  2.000000  2.000000
                       2.000000  2.000000  2.000000  2.000000  2.000000  2.000000
                       2.000000  2.000000  2.000000  2.000000  2.000000  2.000000
                       2.000000  2.000000  2.000000  2.000000  2.000000  2.000000
                       2.000000  2.000000  2.000000  2.000000  2.000000  2.000000
                       2.000000  2.000000  2.000000  2.000000  2.000000  2.000000
                       2.000000  2.000000  2.000000  2.000000  2.000000  2.000000
                       2.000000  2.000000  2.000000  2.000000  2.000000  2.000000
        pawecutdg      2.50000000E+01 Hartree
         pawxcdev           0
            rfdir1          1       1       1
            rfdir2          0       0       0
          spgroup           1
           strten1    -1.9900449625E-04 -2.2214990561E-04 -5.6236808278E-04
                      -3.6296579938E-08  5.0844382775E-09  1.0529710757E-07
           strten2    -1.9900809977E-04 -2.2215302209E-04 -5.6237089637E-04
                      -3.6457071651E-08  4.9556849683E-09  1.0613933411E-07
        symmorphi           0
           toldfe      1.00000000E-10 Hartree
           tolmxf      1.00000000E-05
           tsmear      4.00000000E-02 Hartree
            typat      1  1  1  1  2  2  2  2  2  2  2  2
              wtk        0.00463    0.00926    0.00926    0.00463    0.00926    0.00926
                         0.00926    0.00926    0.00926    0.00926    0.00926    0.00926
                         0.00926    0.00926    0.00926    0.00926    0.00463    0.00926
                         0.00926    0.00463    0.00926    0.00926    0.00926    0.00926
                         0.00926    0.00926    0.00926    0.00926    0.00926    0.00926
                         0.00926    0.00926    0.00926    0.00926    0.00926    0.00926
                         0.00926    0.00926    0.00926    0.00926    0.00926    0.00926
                         0.00926    0.00926    0.00926    0.00926    0.00926    0.00926
                         0.00926    0.00926
                       outvars : Printing only first  50 k-points.
           xangst      6.4949961734E-03  2.1317610256E-02 -7.9664407841E-03
                       2.3780477122E+00  2.5592246356E+00 -3.1839020019E-01
                       6.3144000967E-03  2.5592309972E+00  2.2191955923E+00
                       2.3779507503E+00  2.1381498684E-02  2.5299725800E+00
                       1.3992738606E+00  1.2752252551E+00  1.0380785777E+00
                       9.8550694997E-01  1.2754717057E+00  3.5757933294E+00
                       4.0990719159E+00  3.2597651975E+00  4.9912572967E-01
                       3.3615228256E+00  3.2599352084E+00  3.0375205001E+00
                       1.3993468121E+00  3.8127689644E+00  1.1734918986E+00
                       9.8573891556E-01  3.8129415928E+00  3.7111812330E+00
                       4.0995858807E+00  7.2043047539E-01  1.7125297190E+00
                       3.3602930627E+00  7.2017828051E-01  4.2509441086E+00
            xcart      1.2273764002E-02  4.0284445192E-02 -1.5054391336E-02
                       4.4938589069E+00  4.8362336739E+00 -6.0167028175E-01
                       1.1932486876E-02  4.8362456955E+00  4.1936719048E+00
                       4.4936756756E+00  4.0405176824E-02  4.7809552999E+00
                       2.6442443814E+00  2.4098264899E+00  1.9616842163E+00
                       1.8623382375E+00  2.4102922141E+00  6.7572701005E+00
                       7.7461233200E+00  6.1600634808E+00  9.4321093495E-01
                       6.3523575298E+00  6.1603847547E+00  5.7400818683E+00
                       2.6443822398E+00  7.2050891508E+00  2.2175783075E+00
                       1.8627765889E+00  7.2054153710E+00  7.0131161599E+00
                       7.7470945728E+00  1.3614162963E+00  3.2362121633E+00
                       6.3500336148E+00  1.3609397170E+00  8.0331201714E+00
             xred      1.2796589807E-03  4.2000442623E-03 -1.5695663587E-03
                       4.6852839173E-01  5.0422428300E-01 -6.2729964447E-02
                       1.2440775292E-03  5.0422553637E-01  4.3723098426E-01
                       4.6850928809E-01  4.2126317063E-03  4.9846097619E-01
                       2.7568813196E-01  2.5124779239E-01  2.0452461236E-01
                       1.9416683019E-01  2.5129634865E-01  7.0451096891E-01
                       8.0760851118E-01  6.4224638454E-01  9.8338891267E-02
                       6.6229490484E-01  6.4227988047E-01  5.9845922666E-01
                       2.7570250504E-01  7.5120044977E-01  2.3120405413E-01
                       1.9421253258E-01  7.5123446140E-01  7.3118540290E-01
                       8.0770977371E-01  1.4194085773E-01  3.3740651667E-01
                       6.6205261416E-01  1.4189116972E-01  8.3753071746E-01
            znucl       72.00000    8.00000

- Timing analysis has been suppressed with timopt=0

 Suggested references for the acknowledgment of ABINIT usage.

 Calculation completed.
.Delivered   0 WARNINGs and   2 COMMENTs to log file.