.Version 9.4.2 of ABINIT

 ABINIT is a project of the Universite Catholique de Louvain,
 Corning Inc. and other collaborators, see ~abinit/doc/developers/contributors.txt .
 acknowledgments of the ABINIT effort.

.Starting date : Tue 22 Jun 2021.
- ( at 07h19 )

- input  file    -> /p/work1/jiahaoz/HfO4/CUBIC_ITERATE/iterone/P0.14/scf10
- output file    -> /p/work1/jiahaoz/HfO4/CUBIC_ITERATE/iterone/P0.14/scf10.abo
- root for input  files -> i
- root for output files -> o

 DATASET    1 : space group P2 (#  3); Bravais mP (primitive monocl.)
     intxc =       0    ionmov =       0      iscf =       7    lmnmax =       8
     lnmax =       8     mgfft =      45  mpssoang =       4    mqgrid =    3001
     natom =      12  nloc_mem =       1    nspden =       1   nspinor =       1
    nsppol =       1      nsym =       2    n1xccc =    2501    ntypat =       2
    occopt =       1   xclevel =       2
-    mband =          48        mffmem =           1         mkmem =           4
       mpw =        5294          nfft =       91125          nkpt =         112
  Rough estimation (10% accuracy) of disk space for files :

 DATASET    2 : space group P2 (#  3); Bravais mP (primitive monocl.)
     intxc =       0    ionmov =       0      iscf =       7    lmnmax =       8
     lnmax =       8     mgfft =      45  mpssoang =       4    mqgrid =    3001
     natom =      12  nloc_mem =       1    nspden =       1   nspinor =       1
    nsppol =       1      nsym =       2    n1xccc =    2501    ntypat =       2
    occopt =       1   xclevel =       2
-    mband =          48        mffmem =           1         mkmem =           4
       mpw =        5294          nfft =       91125          nkpt =         112
  Rough estimation (10% accuracy) of disk space for files :

------------- Echo of variables that govern the present computation ------------
-
- outvars: echo of selected default values
-   iomode0 =  0 , fftalg0 =512 , wfoptalg0 =  0
-
- outvars: echo of global parameters not present in the input file
-  max_nthreads =    0
-
 -outvars: echo values of preprocessed input variables --------
            acell      9.5914334888E+00  9.5914334888E+00  9.5914334888E+00 Bohr
              amu      1.78490000E+02  1.59994000E+01
         berryopt1         -1
         berryopt2          4
          chkprim           0
             ecut      2.50000000E+01 Hartree
           ecutsm      5.00000000E-01 Hartree
           efield      1.17476265E-13  3.19111733E-04  1.87618955E-12
-          fftalg         512
           getwfk1          0
           getwfk2          1
           istwfk        1    0    0    1    0    0    0    0    0    0
                         0    0    0    0    0    0    1    0    0    1
                         0    0    0    0    0    0    0    0    0    0
                         0    0    0    0    0    0    0    0    0    0
                         0    0    0    0    0    0    0    0    0    0
                       outvar_i_n : Printing only first  50 k-points.
              ixc          11
           jdtset        1    2
              kpt      0.00000000E+00  0.00000000E+00  0.00000000E+00
                       1.66666667E-01  0.00000000E+00  0.00000000E+00
                       3.33333333E-01  0.00000000E+00  0.00000000E+00
                       5.00000000E-01  0.00000000E+00  0.00000000E+00
                       0.00000000E+00  1.66666667E-01  0.00000000E+00
                       1.66666667E-01  1.66666667E-01  0.00000000E+00
                       3.33333333E-01  1.66666667E-01  0.00000000E+00
                       5.00000000E-01  1.66666667E-01  0.00000000E+00
                      -3.33333333E-01  1.66666667E-01  0.00000000E+00
                      -1.66666667E-01  1.66666667E-01  0.00000000E+00
                       0.00000000E+00  3.33333333E-01  0.00000000E+00
                       1.66666667E-01  3.33333333E-01  0.00000000E+00
                       3.33333333E-01  3.33333333E-01  0.00000000E+00
                       5.00000000E-01  3.33333333E-01  0.00000000E+00
                      -3.33333333E-01  3.33333333E-01  0.00000000E+00
                      -1.66666667E-01  3.33333333E-01  0.00000000E+00
                       0.00000000E+00  5.00000000E-01  0.00000000E+00
                       1.66666667E-01  5.00000000E-01  0.00000000E+00
                       3.33333333E-01  5.00000000E-01  0.00000000E+00
                       5.00000000E-01  5.00000000E-01  0.00000000E+00
                       0.00000000E+00  0.00000000E+00  1.66666667E-01
                       1.66666667E-01  0.00000000E+00  1.66666667E-01
                       3.33333333E-01  0.00000000E+00  1.66666667E-01
                       5.00000000E-01  0.00000000E+00  1.66666667E-01
                      -3.33333333E-01  0.00000000E+00  1.66666667E-01
                      -1.66666667E-01  0.00000000E+00  1.66666667E-01
                       0.00000000E+00  1.66666667E-01  1.66666667E-01
                       1.66666667E-01  1.66666667E-01  1.66666667E-01
                       3.33333333E-01  1.66666667E-01  1.66666667E-01
                       5.00000000E-01  1.66666667E-01  1.66666667E-01
                      -3.33333333E-01  1.66666667E-01  1.66666667E-01
                      -1.66666667E-01  1.66666667E-01  1.66666667E-01
                       0.00000000E+00  3.33333333E-01  1.66666667E-01
                       1.66666667E-01  3.33333333E-01  1.66666667E-01
                       3.33333333E-01  3.33333333E-01  1.66666667E-01
                       5.00000000E-01  3.33333333E-01  1.66666667E-01
                      -3.33333333E-01  3.33333333E-01  1.66666667E-01
                      -1.66666667E-01  3.33333333E-01  1.66666667E-01
                       0.00000000E+00  5.00000000E-01  1.66666667E-01
                       1.66666667E-01  5.00000000E-01  1.66666667E-01
                       3.33333333E-01  5.00000000E-01  1.66666667E-01
                       5.00000000E-01  5.00000000E-01  1.66666667E-01
                      -3.33333333E-01  5.00000000E-01  1.66666667E-01
                      -1.66666667E-01  5.00000000E-01  1.66666667E-01
                       0.00000000E+00 -3.33333333E-01  1.66666667E-01
                       1.66666667E-01 -3.33333333E-01  1.66666667E-01
                       3.33333333E-01 -3.33333333E-01  1.66666667E-01
                       5.00000000E-01 -3.33333333E-01  1.66666667E-01
                      -3.33333333E-01 -3.33333333E-01  1.66666667E-01
                      -1.66666667E-01 -3.33333333E-01  1.66666667E-01
                       outvar_i_n : Printing only first  50 k-points.
           kptopt           2
         kptrlatt        6    0    0      0    6    0      0    0    6
          kptrlen      5.75486009E+01
P           mkmem           4
            natom          12
            nband          48
           ndtset           2
            ngfft          45      45      45
             nkpt         112
            nstep         100
             nsym           2
           ntypat           2
              occ      2.000000  2.000000  2.000000  2.000000  2.000000  2.000000
                       2.000000  2.000000  2.000000  2.000000  2.000000  2.000000
                       2.000000  2.000000  2.000000  2.000000  2.000000  2.000000
                       2.000000  2.000000  2.000000  2.000000  2.000000  2.000000
                       2.000000  2.000000  2.000000  2.000000  2.000000  2.000000
                       2.000000  2.000000  2.000000  2.000000  2.000000  2.000000
                       2.000000  2.000000  2.000000  2.000000  2.000000  2.000000
                       2.000000  2.000000  2.000000  2.000000  2.000000  2.000000
        pawecutdg      2.50000000E+01 Hartree
         pawxcdev           0
            rfdir1          1       1       1
            rfdir2          0       0       0
          spgroup           3
        symmorphi           0
           symrel      1  0  0   0  1  0   0  0  1      -1  0  0   0  1  0   0  0 -1
           toldfe      1.00000000E-10 Hartree
           tolmxf      1.00000000E-05
           tsmear      4.00000000E-02 Hartree
            typat      1  1  1  1  2  2  2  2  2  2  2  2
              wtk        0.00463    0.00926    0.00926    0.00463    0.00926    0.00926
                         0.00926    0.00926    0.00926    0.00926    0.00926    0.00926
                         0.00926    0.00926    0.00926    0.00926    0.00463    0.00926
                         0.00926    0.00463    0.00926    0.00926    0.00926    0.00926
                         0.00926    0.00926    0.00926    0.00926    0.00926    0.00926
                         0.00926    0.00926    0.00926    0.00926    0.00926    0.00926
                         0.00926    0.00926    0.00926    0.00926    0.00926    0.00926
                         0.00926    0.00926    0.00926    0.00926    0.00926    0.00926
                         0.00926    0.00926
                       outvars : Printing only first  50 k-points.
           xangst      0.0000000000E+00  5.8668236734E-02  0.0000000000E+00
                       2.5377840000E+00  2.5964347260E+00  0.0000000000E+00
                       0.0000000000E+00  2.5965006069E+00  2.5377840000E+00
                       2.5377840000E+00  5.8678793915E-02  2.5377840000E+00
                       1.3134502592E+00  1.2680662051E+00  1.0191763892E+00
                       1.2243779490E+00  1.2680909231E+00  3.5569785597E+00
                       3.8512326350E+00  3.8058590366E+00  1.0192156741E+00
                       3.7620983521E+00  3.8058994889E+00  3.5570218543E+00
                       1.3134696479E+00  3.8058994889E+00  1.5185461457E+00
                       1.2243353650E+00  3.8058590366E+00  4.0563523259E+00
                       3.8511900510E+00  1.2680909231E+00  1.5185894403E+00
                       3.7621177408E+00  1.2680662051E+00  4.0563916108E+00
            xcart      0.0000000000E+00  1.1086690013E-01  0.0000000000E+00
                       4.7957167444E+00  4.9065505541E+00  0.0000000000E+00
                       0.0000000000E+00  4.9066750509E+00  4.7957167444E+00
                       4.7957167444E+00  1.1088685031E-01  4.7957167444E+00
                       2.4820612791E+00  2.3962978460E+00  1.9259642566E+00
                       2.3137390067E+00  2.3963445563E+00  6.7217153384E+00
                       7.2777749542E+00  7.1920312795E+00  1.9260384943E+00
                       7.1093355705E+00  7.1921077232E+00  6.7217971533E+00
                       2.4820979183E+00  7.1921077232E+00  2.8696363355E+00
                       2.3136585346E+00  7.1920312795E+00  7.6653949945E+00
                       7.2776944821E+00  2.3963445563E+00  2.8697181505E+00
                       7.1093722098E+00  2.3962978460E+00  7.6654692322E+00
             xred      0.0000000000E+00  1.1558950000E-02  0.0000000000E+00
                       5.0000000000E-01  5.1155550000E-01  0.0000000000E+00
                       0.0000000000E+00  5.1156848000E-01  5.0000000000E-01
                       5.0000000000E-01  1.1561030000E-02  5.0000000000E-01
[...]
    5     -0.00000404392954     0.00000369916741     0.00000322366193
    6     -0.00000649877138     0.00000309890397    -0.00000150620633
    7      0.00000324349636    -0.00000033942705     0.00000159392326
    8      0.00000570981225    -0.00000645723994    -0.00000335510384
    9     -0.00000570981225    -0.00000645723994     0.00000335510384
   10     -0.00000324349636    -0.00000033942705    -0.00000159392326
   11      0.00000649877138     0.00000309890397     0.00000150620633
   12      0.00000404392954     0.00000369916741    -0.00000322366193
 frms,max,avg= 3.3150581E-06 6.4987714E-06   0.000E+00  1.787E-06  0.000E+00 h/b

 cartesian forces (eV/Angstrom) at end:
    1      0.00000000000000    -0.00006851812072     0.00000000000000
    2      0.00000000000000     0.00011377946627     0.00000000000000
    3      0.00000000000000    -0.00007455030456     0.00000000000000
    4      0.00000000000000     0.00002914452585     0.00000000000000
    5     -0.00020794720054     0.00019021882018     0.00016576734744
    6     -0.00033418023242     0.00015935203566    -0.00007745223701
    7      0.00016678727499    -0.00001745403899     0.00008196282275
    8      0.00029361032616    -0.00033204460027    -0.00017252636181
    9     -0.00029361032616    -0.00033204460027     0.00017252636181
   10     -0.00016678727499    -0.00001745403899    -0.00008196282275
   11      0.00033418023242     0.00015935203566     0.00007745223701
   12      0.00020794720054     0.00019021882018    -0.00016576734744
 frms,max,avg= 1.7046713E-04 3.3418023E-04   0.000E+00  9.192E-05  0.000E+00 e/A
 length scales=  9.591433488838  9.591433488838  9.591433488838 bohr
              =  5.075568000000  5.075568000000  5.075568000000 angstroms
 prteigrs : about to open file o_DS2_EIG
 Fermi (or HOMO) energy (hartree) =   0.27691   Average Vxc (hartree)=  -0.44598
 Eigenvalues (hartree) for nkpt= 112  k points:
 kpt#   1, nband= 48, wtk=  0.00463, kpt=  0.0000  0.0000  0.0000 (reduced coord)
  -1.94342   -1.94275   -1.94273   -1.94272   -0.80513   -0.80510   -0.80477   -0.79343
  -0.79299   -0.79265   -0.79224   -0.79144   -0.79135   -0.78837   -0.78684   -0.78681
  -0.39513   -0.33821   -0.32936   -0.32886   -0.31890   -0.31612   -0.31570   -0.29759
   0.06043    0.06056    0.07192    0.09592    0.10286    0.10326    0.16210    0.16400
   0.16651    0.16836    0.17241    0.17244    0.22126    0.22391    0.22619    0.22880
   0.24696    0.25182    0.25427    0.25511    0.25605    0.26600    0.26812    0.27517
 prteigrs : prtvol=0 or 1, do not print more k-points.

--- !EnergyTerms
iteration_state     : {dtset: 2, }
comment             : Components of total free energy in Hartree
kinetic             :  1.46213993597078E+02
hartree             :  5.59586542011112E+01
xc                  : -9.09089284504119E+01
Ewald energy        : -2.70116761900606E+02
psp_core            :  1.49595106529080E+01
local_psp           : -2.05624910681556E+02
non_local_psp       : -9.11549124068018E+00
electric            : -6.94167955456087E-04
kohn_sham           : -3.58633933822158E+02
total_energy        : -3.58634627990114E+02
total_energy_eV     : -9.75894452772728E+03
band_energy         : -3.11039903023964E+01
...

Constant unreduced E calculation  - final values:
 (a. u.)
       E:   1.174762654E-13   3.191117335E-04   1.876189547E-12
       P:  -1.509970162E-13   2.452611202E-03   1.377746361E-13

    ebar:   1.126765786E-12   3.060738967E-03   1.799534726E-11
    pbar:  -1.819959606E-11   2.956120214E-01   1.660590910E-11

       e:   8.600175359E-13   2.336145824E-03   1.373516520E-11
       p:  -1.389106055E-11   2.256294302E-01   1.267465982E-11

 (S.I.), that is V/m for E, and C/m^2 for P
-      E:   6.040871941E-02   1.640938372E+08   9.647753747E-01
       P:  -8.639258263E-12   1.403255649E-01   7.882742945E-12

 Please check: COMMENT -
  As a rough estimate,
  to be below the critical field, the bandgap of your system
  should be larger than    0.50 eV.

 Cartesian components of stress tensor (hartree/bohr^3)
  sigma(1 1)= -1.79675990E-04  sigma(3 2)=  0.00000000E+00
  sigma(2 2)= -1.84676652E-04  sigma(3 1)=  1.62157000E-10
  sigma(3 3)= -4.81273981E-04  sigma(2 1)=  0.00000000E+00

-Cartesian components of stress tensor (GPa)         [Pressure=  8.2931E+00 GPa]
- sigma(1 1)= -5.28624923E+00  sigma(3 2)=  0.00000000E+00
- sigma(2 2)= -5.43337376E+00  sigma(3 1)=  4.77082286E-06
- sigma(3 3)= -1.41595670E+01  sigma(2 1)=  0.00000000E+00

== END DATASET(S) ==============================================================

 -outvars: echo values of variables after computation  --------
            acell      9.5914334888E+00  9.5914334888E+00  9.5914334888E+00 Bohr
              amu      1.78490000E+02  1.59994000E+01
         berryopt1         -1
         berryopt2          4
          chkprim           0
             ecut      2.50000000E+01 Hartree
           ecutsm      5.00000000E-01 Hartree
           efield      1.17476265E-13  3.19111733E-04  1.87618955E-12
           etotal1    -3.5863394835E+02
           etotal2    -3.5863462799E+02
            fcart1     0.0000000000E+00 -1.7663185731E-03 -2.8234431575E-22
                       0.0000000000E+00 -1.7623807727E-03 -2.8234431575E-22
                       0.0000000000E+00 -1.7660213682E-03 -2.8234431575E-22
                       0.0000000000E+00 -1.7643432955E-03 -2.8234431575E-22
                       1.9424241991E-04  8.8612526431E-04 -2.3124543035E-05
                      -2.0468966235E-04  8.8551587201E-04 -2.8010790774E-05
                       2.0146800808E-04  8.8201937983E-04 -2.4832772574E-05
                      -1.9246494698E-04  8.7587148858E-04 -2.9965044135E-05
                       1.9246494698E-04  8.7587148858E-04  2.9965044135E-05
                      -2.0146800808E-04  8.8201937983E-04  2.4832772574E-05
                       2.0468966235E-04  8.8551587201E-04  2.8010790774E-05
                      -1.9424241991E-04  8.8612526431E-04  2.3124543035E-05
            fcart2     0.0000000000E+00 -1.3324654140E-06  3.5293039469E-23
                       0.0000000000E+00  2.2126585206E-06  3.5293039469E-23
                       0.0000000000E+00 -1.4497727226E-06  3.5293039469E-23
                       0.0000000000E+00  5.6677083802E-07  3.5293039469E-23
                      -4.0439295437E-06  3.6991674074E-06  3.2236619293E-06
                      -6.4987713771E-06  3.0989039677E-06 -1.5062063285E-06
                       3.2434963639E-06 -3.3942704556E-07  1.5939232628E-06
                       5.7098122467E-06 -6.4572399405E-06 -3.3551038427E-06
                      -5.7098122467E-06 -6.4572399405E-06  3.3551038427E-06
                      -3.2434963639E-06 -3.3942704556E-07 -1.5939232628E-06
                       6.4987713771E-06  3.0989039677E-06  1.5062063285E-06
                       4.0439295437E-06  3.6991674074E-06 -3.2236619293E-06
-          fftalg         512
           getwfk1          0
           getwfk2          1
           istwfk        1    0    0    1    0    0    0    0    0    0
                         0    0    0    0    0    0    1    0    0    1
                         0    0    0    0    0    0    0    0    0    0
                         0    0    0    0    0    0    0    0    0    0
                         0    0    0    0    0    0    0    0    0    0
                       outvar_i_n : Printing only first  50 k-points.
              ixc          11
           jdtset        1    2
              kpt      0.00000000E+00  0.00000000E+00  0.00000000E+00
                       1.66666667E-01  0.00000000E+00  0.00000000E+00
                       3.33333333E-01  0.00000000E+00  0.00000000E+00
                       5.00000000E-01  0.00000000E+00  0.00000000E+00
                       0.00000000E+00  1.66666667E-01  0.00000000E+00
                       1.66666667E-01  1.66666667E-01  0.00000000E+00
                       3.33333333E-01  1.66666667E-01  0.00000000E+00
                       5.00000000E-01  1.66666667E-01  0.00000000E+00
                      -3.33333333E-01  1.66666667E-01  0.00000000E+00
                      -1.66666667E-01  1.66666667E-01  0.00000000E+00
                       0.00000000E+00  3.33333333E-01  0.00000000E+00
                       1.66666667E-01  3.33333333E-01  0.00000000E+00
                       3.33333333E-01  3.33333333E-01  0.00000000E+00
                       5.00000000E-01  3.33333333E-01  0.00000000E+00
                      -3.33333333E-01  3.33333333E-01  0.00000000E+00
                      -1.66666667E-01  3.33333333E-01  0.00000000E+00
                       0.00000000E+00  5.00000000E-01  0.00000000E+00
                       1.66666667E-01  5.00000000E-01  0.00000000E+00
                       3.33333333E-01  5.00000000E-01  0.00000000E+00
                       5.00000000E-01  5.00000000E-01  0.00000000E+00
                       0.00000000E+00  0.00000000E+00  1.66666667E-01
                       1.66666667E-01  0.00000000E+00  1.66666667E-01
                       3.33333333E-01  0.00000000E+00  1.66666667E-01
                       5.00000000E-01  0.00000000E+00  1.66666667E-01
                      -3.33333333E-01  0.00000000E+00  1.66666667E-01
                      -1.66666667E-01  0.00000000E+00  1.66666667E-01
                       0.00000000E+00  1.66666667E-01  1.66666667E-01
                       1.66666667E-01  1.66666667E-01  1.66666667E-01
                       3.33333333E-01  1.66666667E-01  1.66666667E-01
                       5.00000000E-01  1.66666667E-01  1.66666667E-01
                      -3.33333333E-01  1.66666667E-01  1.66666667E-01
                      -1.66666667E-01  1.66666667E-01  1.66666667E-01
                       0.00000000E+00  3.33333333E-01  1.66666667E-01
                       1.66666667E-01  3.33333333E-01  1.66666667E-01
                       3.33333333E-01  3.33333333E-01  1.66666667E-01
                       5.00000000E-01  3.33333333E-01  1.66666667E-01
                      -3.33333333E-01  3.33333333E-01  1.66666667E-01
                      -1.66666667E-01  3.33333333E-01  1.66666667E-01
                       0.00000000E+00  5.00000000E-01  1.66666667E-01
                       1.66666667E-01  5.00000000E-01  1.66666667E-01
                       3.33333333E-01  5.00000000E-01  1.66666667E-01
                       5.00000000E-01  5.00000000E-01  1.66666667E-01
                      -3.33333333E-01  5.00000000E-01  1.66666667E-01
                      -1.66666667E-01  5.00000000E-01  1.66666667E-01
                       0.00000000E+00 -3.33333333E-01  1.66666667E-01
                       1.66666667E-01 -3.33333333E-01  1.66666667E-01
                       3.33333333E-01 -3.33333333E-01  1.66666667E-01
                       5.00000000E-01 -3.33333333E-01  1.66666667E-01
                      -3.33333333E-01 -3.33333333E-01  1.66666667E-01
                      -1.66666667E-01 -3.33333333E-01  1.66666667E-01
                       outvar_i_n : Printing only first  50 k-points.
           kptopt           2
         kptrlatt        6    0    0      0    6    0      0    0    6
          kptrlen      5.75486009E+01
P           mkmem           4
            natom          12
            nband          48
           ndtset           2
            ngfft          45      45      45
             nkpt         112
            nstep         100
             nsym           2
           ntypat           2
              occ      2.000000  2.000000  2.000000  2.000000  2.000000  2.000000
                       2.000000  2.000000  2.000000  2.000000  2.000000  2.000000
                       2.000000  2.000000  2.000000  2.000000  2.000000  2.000000
                       2.000000  2.000000  2.000000  2.000000  2.000000  2.000000
                       2.000000  2.000000  2.000000  2.000000  2.000000  2.000000
                       2.000000  2.000000  2.000000  2.000000  2.000000  2.000000
                       2.000000  2.000000  2.000000  2.000000  2.000000  2.000000
                       2.000000  2.000000  2.000000  2.000000  2.000000  2.000000
        pawecutdg      2.50000000E+01 Hartree
         pawxcdev           0
            rfdir1          1       1       1
            rfdir2          0       0       0
          spgroup           3
           strten1    -1.8023397310E-04 -1.8371558835E-04 -4.8168924598E-04
                       0.0000000000E+00  1.6347474430E-10  0.0000000000E+00
           strten2    -1.7967598973E-04 -1.8467665152E-04 -4.8127398062E-04
                       0.0000000000E+00  1.6215700046E-10  0.0000000000E+00
        symmorphi           0
           symrel      1  0  0   0  1  0   0  0  1      -1  0  0   0  1  0   0  0 -1
           toldfe      1.00000000E-10 Hartree
           tolmxf      1.00000000E-05
           tsmear      4.00000000E-02 Hartree
            typat      1  1  1  1  2  2  2  2  2  2  2  2
              wtk        0.00463    0.00926    0.00926    0.00463    0.00926    0.00926
                         0.00926    0.00926    0.00926    0.00926    0.00926    0.00926
                         0.00926    0.00926    0.00926    0.00926    0.00463    0.00926
                         0.00926    0.00463    0.00926    0.00926    0.00926    0.00926
                         0.00926    0.00926    0.00926    0.00926    0.00926    0.00926
                         0.00926    0.00926    0.00926    0.00926    0.00926    0.00926
                         0.00926    0.00926    0.00926    0.00926    0.00926    0.00926
                         0.00926    0.00926    0.00926    0.00926    0.00926    0.00926
                         0.00926    0.00926
                       outvars : Printing only first  50 k-points.
           xangst      0.0000000000E+00  5.8668236734E-02  0.0000000000E+00
                       2.5377840000E+00  2.5964347260E+00  0.0000000000E+00
                       0.0000000000E+00  2.5965006069E+00  2.5377840000E+00
                       2.5377840000E+00  5.8678793915E-02  2.5377840000E+00
                       1.3134502592E+00  1.2680662051E+00  1.0191763892E+00
                       1.2243779490E+00  1.2680909231E+00  3.5569785597E+00
                       3.8512326350E+00  3.8058590366E+00  1.0192156741E+00
                       3.7620983521E+00  3.8058994889E+00  3.5570218543E+00
                       1.3134696479E+00  3.8058994889E+00  1.5185461457E+00
                       1.2243353650E+00  3.8058590366E+00  4.0563523259E+00
                       3.8511900510E+00  1.2680909231E+00  1.5185894403E+00
                       3.7621177408E+00  1.2680662051E+00  4.0563916108E+00
            xcart      0.0000000000E+00  1.1086690013E-01  0.0000000000E+00
                       4.7957167444E+00  4.9065505541E+00  0.0000000000E+00
                       0.0000000000E+00  4.9066750509E+00  4.7957167444E+00
                       4.7957167444E+00  1.1088685031E-01  4.7957167444E+00
                       2.4820612791E+00  2.3962978460E+00  1.9259642566E+00
                       2.3137390067E+00  2.3963445563E+00  6.7217153384E+00
                       7.2777749542E+00  7.1920312795E+00  1.9260384943E+00
                       7.1093355705E+00  7.1921077232E+00  6.7217971533E+00
                       2.4820979183E+00  7.1921077232E+00  2.8696363355E+00
                       2.3136585346E+00  7.1920312795E+00  7.6653949945E+00
                       7.2776944821E+00  2.3963445563E+00  2.8697181505E+00
                       7.1093722098E+00  2.3962978460E+00  7.6654692322E+00
             xred      0.0000000000E+00  1.1558950000E-02  0.0000000000E+00
                       5.0000000000E-01  5.1155550000E-01  0.0000000000E+00
                       0.0000000000E+00  5.1156848000E-01  5.0000000000E-01
                       5.0000000000E-01  1.1561030000E-02  5.0000000000E-01
                       2.5877897000E-01  2.4983730000E-01  2.0080046000E-01
                       2.4122974000E-01  2.4984217000E-01  7.0080404000E-01
                       7.5877865000E-01  7.4983904000E-01  2.0080820000E-01
                       7.4121721000E-01  7.4984701000E-01  7.0081257000E-01
                       2.5878279000E-01  7.4984701000E-01  2.9918743000E-01
                       2.4122135000E-01  7.4983904000E-01  7.9919180000E-01
                       7.5877026000E-01  2.4984217000E-01  2.9919596000E-01
                       7.4122103000E-01  2.4983730000E-01  7.9919954000E-01
            znucl       72.00000    8.00000

- Timing analysis has been suppressed with timopt=0

 Suggested references for the acknowledgment of ABINIT usage.

 Calculation completed.
.Delivered   0 WARNINGs and   2 COMMENTs to log file.