.Version 9.4.2 of ABINIT

 ABINIT is a project of the Universite Catholique de Louvain,
 Corning Inc. and other collaborators, see ~abinit/doc/developers/contributors.txt .
 acknowledgments of the ABINIT effort.

.Starting date : Tue 22 Jun 2021.
- ( at 08h07 )

- input  file    -> /p/work1/jiahaoz/HfO4/CUBIC_ITERATE/iterone/P0.18/scf10
- output file    -> /p/work1/jiahaoz/HfO4/CUBIC_ITERATE/iterone/P0.18/scf10.abo
- root for input  files -> i
- root for output files -> o

 DATASET    1 : the unit cell is not primitive
     intxc =       0    ionmov =       0      iscf =       7    lmnmax =       8
     lnmax =       8     mgfft =      45  mpssoang =       4    mqgrid =    3001
     natom =      12  nloc_mem =       1    nspden =       1   nspinor =       1
    nsppol =       1      nsym =       2    n1xccc =    2501    ntypat =       2
    occopt =       1   xclevel =       2
-    mband =          48        mffmem =           1         mkmem =           4
       mpw =        5294          nfft =       91125          nkpt =         112
  Rough estimation (10% accuracy) of disk space for files :

 DATASET    2 : the unit cell is not primitive
     intxc =       0    ionmov =       0      iscf =       7    lmnmax =       8
     lnmax =       8     mgfft =      45  mpssoang =       4    mqgrid =    3001
     natom =      12  nloc_mem =       1    nspden =       1   nspinor =       1
    nsppol =       1      nsym =       2    n1xccc =    2501    ntypat =       2
    occopt =       1   xclevel =       2
-    mband =          48        mffmem =           1         mkmem =           4
       mpw =        5294          nfft =       91125          nkpt =         112
  Rough estimation (10% accuracy) of disk space for files :

------------- Echo of variables that govern the present computation ------------
-
- outvars: echo of selected default values
-   iomode0 =  0 , fftalg0 =512 , wfoptalg0 =  0
-
- outvars: echo of global parameters not present in the input file
-  max_nthreads =    0
-
 -outvars: echo values of preprocessed input variables --------
            acell      9.5914334888E+00  9.5914334888E+00  9.5914334888E+00 Bohr
              amu      1.78490000E+02  1.59994000E+01
         berryopt1         -1
         berryopt2          4
          chkprim           0
             ecut      2.50000000E+01 Hartree
           ecutsm      5.00000000E-01 Hartree
           efield      8.62803320E-13  4.27011967E-04  1.74955093E-12
-          fftalg         512
           getwfk1          0
           getwfk2          1
           istwfk        1    0    0    1    0    0    0    0    0    0
                         0    0    0    0    0    0    1    0    0    1
                         0    0    0    0    0    0    0    0    0    0
                         0    0    0    0    0    0    0    0    0    0
                         0    0    0    0    0    0    0    0    0    0
                       outvar_i_n : Printing only first  50 k-points.
              ixc          11
           jdtset        1    2
              kpt      0.00000000E+00  0.00000000E+00  0.00000000E+00
                       1.66666667E-01  0.00000000E+00  0.00000000E+00
                       3.33333333E-01  0.00000000E+00  0.00000000E+00
                       5.00000000E-01  0.00000000E+00  0.00000000E+00
                       0.00000000E+00  1.66666667E-01  0.00000000E+00
                       1.66666667E-01  1.66666667E-01  0.00000000E+00
                       3.33333333E-01  1.66666667E-01  0.00000000E+00
                       5.00000000E-01  1.66666667E-01  0.00000000E+00
                      -3.33333333E-01  1.66666667E-01  0.00000000E+00
                      -1.66666667E-01  1.66666667E-01  0.00000000E+00
                       0.00000000E+00  3.33333333E-01  0.00000000E+00
                       1.66666667E-01  3.33333333E-01  0.00000000E+00
                       3.33333333E-01  3.33333333E-01  0.00000000E+00
                       5.00000000E-01  3.33333333E-01  0.00000000E+00
                      -3.33333333E-01  3.33333333E-01  0.00000000E+00
                      -1.66666667E-01  3.33333333E-01  0.00000000E+00
                       0.00000000E+00  5.00000000E-01  0.00000000E+00
                       1.66666667E-01  5.00000000E-01  0.00000000E+00
                       3.33333333E-01  5.00000000E-01  0.00000000E+00
                       5.00000000E-01  5.00000000E-01  0.00000000E+00
                       0.00000000E+00  0.00000000E+00  1.66666667E-01
                       1.66666667E-01  0.00000000E+00  1.66666667E-01
                       3.33333333E-01  0.00000000E+00  1.66666667E-01
                       5.00000000E-01  0.00000000E+00  1.66666667E-01
                      -3.33333333E-01  0.00000000E+00  1.66666667E-01
                      -1.66666667E-01  0.00000000E+00  1.66666667E-01
                       0.00000000E+00  1.66666667E-01  1.66666667E-01
                       1.66666667E-01  1.66666667E-01  1.66666667E-01
                       3.33333333E-01  1.66666667E-01  1.66666667E-01
                       5.00000000E-01  1.66666667E-01  1.66666667E-01
                      -3.33333333E-01  1.66666667E-01  1.66666667E-01
                      -1.66666667E-01  1.66666667E-01  1.66666667E-01
                       0.00000000E+00  3.33333333E-01  1.66666667E-01
                       1.66666667E-01  3.33333333E-01  1.66666667E-01
                       3.33333333E-01  3.33333333E-01  1.66666667E-01
                       5.00000000E-01  3.33333333E-01  1.66666667E-01
                      -3.33333333E-01  3.33333333E-01  1.66666667E-01
                      -1.66666667E-01  3.33333333E-01  1.66666667E-01
                       0.00000000E+00  5.00000000E-01  1.66666667E-01
                       1.66666667E-01  5.00000000E-01  1.66666667E-01
                       3.33333333E-01  5.00000000E-01  1.66666667E-01
                       5.00000000E-01  5.00000000E-01  1.66666667E-01
                      -3.33333333E-01  5.00000000E-01  1.66666667E-01
                      -1.66666667E-01  5.00000000E-01  1.66666667E-01
                       0.00000000E+00 -3.33333333E-01  1.66666667E-01
                       1.66666667E-01 -3.33333333E-01  1.66666667E-01
                       3.33333333E-01 -3.33333333E-01  1.66666667E-01
                       5.00000000E-01 -3.33333333E-01  1.66666667E-01
                      -3.33333333E-01 -3.33333333E-01  1.66666667E-01
                      -1.66666667E-01 -3.33333333E-01  1.66666667E-01
                       outvar_i_n : Printing only first  50 k-points.
           kptopt           2
         kptrlatt        6    0    0      0    6    0      0    0    6
          kptrlen      5.75486009E+01
P           mkmem           4
            natom          12
            nband          48
           ndtset           2
            ngfft          45      45      45
             nkpt         112
            nstep         100
             nsym           2
           ntypat           2
              occ      2.000000  2.000000  2.000000  2.000000  2.000000  2.000000
                       2.000000  2.000000  2.000000  2.000000  2.000000  2.000000
                       2.000000  2.000000  2.000000  2.000000  2.000000  2.000000
                       2.000000  2.000000  2.000000  2.000000  2.000000  2.000000
                       2.000000  2.000000  2.000000  2.000000  2.000000  2.000000
                       2.000000  2.000000  2.000000  2.000000  2.000000  2.000000
                       2.000000  2.000000  2.000000  2.000000  2.000000  2.000000
                       2.000000  2.000000  2.000000  2.000000  2.000000  2.000000
        pawecutdg      2.50000000E+01 Hartree
         pawxcdev           0
            rfdir1          1       1       1
            rfdir2          0       0       0
        symmorphi           0
           symrel      1  0  0   0  1  0   0  0  1      -1  0  0   0  1  0   0  0 -1
           toldfe      1.00000000E-10 Hartree
           tolmxf      1.00000000E-05
           tsmear      4.00000000E-02 Hartree
            typat      1  1  1  1  2  2  2  2  2  2  2  2
              wtk        0.00463    0.00926    0.00926    0.00463    0.00926    0.00926
                         0.00926    0.00926    0.00926    0.00926    0.00926    0.00926
                         0.00926    0.00926    0.00926    0.00926    0.00463    0.00926
                         0.00926    0.00463    0.00926    0.00926    0.00926    0.00926
                         0.00926    0.00926    0.00926    0.00926    0.00926    0.00926
                         0.00926    0.00926    0.00926    0.00926    0.00926    0.00926
                         0.00926    0.00926    0.00926    0.00926    0.00926    0.00926
                         0.00926    0.00926    0.00926    0.00926    0.00926    0.00926
                         0.00926    0.00926
                       outvars : Printing only first  50 k-points.
           xangst      0.0000000000E+00  7.5482121603E-02  0.0000000000E+00
                       2.5377840000E+00  2.6132661216E+00  0.0000000000E+00
                       0.0000000000E+00  2.6132661216E+00  2.5377840000E+00
                       2.5377840000E+00  7.5482121603E-02  2.5377840000E+00
                       1.3261725384E+00  1.2678536784E+00  1.0166114255E+00
                       1.2116114616E+00  1.2678536784E+00  3.5543954255E+00
                       3.8639565384E+00  3.8056376784E+00  1.0166114255E+00
                       3.7493954616E+00  3.8056376784E+00  3.5543954255E+00
                       1.3261725384E+00  3.8056376784E+00  1.5211725745E+00
                       1.2116114616E+00  3.8056376784E+00  4.0589565745E+00
                       3.8639565384E+00  1.2678536784E+00  1.5211725745E+00
                       3.7493954616E+00  1.2678536784E+00  4.0589565745E+00
            xcart      0.0000000000E+00  1.4264053776E-01  0.0000000000E+00
                       4.7957167444E+00  4.9383572822E+00  0.0000000000E+00
                       0.0000000000E+00  4.9383572822E+00  4.7957167444E+00
                       4.7957167444E+00  1.4264053776E-01  4.7957167444E+00
                       2.5061029025E+00  2.3958962287E+00  1.9211171777E+00
                       2.2896138419E+00  2.3958962287E+00  6.7168339222E+00
                       7.3018196469E+00  7.1916129731E+00  1.9211171777E+00
                       7.0853305864E+00  7.1916129731E+00  6.7168339222E+00
                       2.5061029025E+00  7.1916129731E+00  2.8745995667E+00
                       2.2896138419E+00  7.1916129731E+00  7.6703163111E+00
                       7.3018196469E+00  2.3958962287E+00  2.8745995667E+00
                       7.0853305864E+00  2.3958962287E+00  7.6703163111E+00
             xred      0.0000000000E+00  1.4871660000E-02  0.0000000000E+00
                       5.0000000000E-01  5.1487166000E-01  0.0000000000E+00
                       0.0000000000E+00  5.1487166000E-01  5.0000000000E-01
                       5.0000000000E-01  1.4871660000E-02  5.0000000000E-01
                       2.6128554250E-01  2.4979542750E-01  2.0029510500E-01
[...]
    4     -0.00000000000000     0.00000088348016     0.00000000000000
    5      0.00000212611689    -0.00000279300170    -0.00000350763689
    6      0.00000533449677    -0.00000588235030     0.00000264221350
    7     -0.00000240484191     0.00000275693950    -0.00000221170726
    8     -0.00000562214329     0.00000591571882     0.00000310711751
    9      0.00000562214329     0.00000591571882    -0.00000310711751
   10      0.00000240484191     0.00000275693950     0.00000221170726
   11     -0.00000533449677    -0.00000588235030    -0.00000264221350
   12     -0.00000212611689    -0.00000279300170     0.00000350763689
 frms,max,avg= 3.2510511E-06 5.9157188E-06   0.000E+00 -2.805E-07  0.000E+00 h/b

 cartesian forces (eV/Angstrom) at end:
    1     -0.00000000000000     0.00001222997063     0.00000000000000
    2     -0.00000000000000    -0.00005774185461     0.00000000000000
    3     -0.00000000000000     0.00000035854112     0.00000000000000
    4     -0.00000000000000     0.00004543037267     0.00000000000000
    5      0.00010932931711    -0.00014362190986    -0.00018036992575
    6      0.00027431083010    -0.00030248258893     0.00013586806944
    7     -0.00012366193249     0.00014176751699    -0.00011373055032
    8     -0.00028910220756     0.00030419846690     0.00015977439274
    9      0.00028910220756     0.00030419846690    -0.00015977439274
   10      0.00012366193249     0.00014176751699     0.00011373055032
   11     -0.00027431083010    -0.00030248258893    -0.00013586806944
   12     -0.00010932931711    -0.00014362190986     0.00018036992575
 frms,max,avg= 1.6717576E-04 3.0419847E-04   0.000E+00 -1.442E-05  0.000E+00 e/A
 length scales=  9.591433488838  9.591433488838  9.591433488838 bohr
              =  5.075568000000  5.075568000000  5.075568000000 angstroms
 prteigrs : about to open file o_DS2_EIG
 Fermi (or HOMO) energy (hartree) =   0.27677   Average Vxc (hartree)=  -0.44596
 Eigenvalues (hartree) for nkpt= 112  k points:
 kpt#   1, nband= 48, wtk=  0.00463, kpt=  0.0000  0.0000  0.0000 (reduced coord)
  -1.94324   -1.94258   -1.94255   -1.94255   -0.80507   -0.80502   -0.80470   -0.79351
  -0.79291   -0.79255   -0.79199   -0.79142   -0.79128   -0.78822   -0.78675   -0.78671
  -0.39517   -0.33821   -0.32965   -0.32881   -0.31890   -0.31632   -0.31562   -0.29808
   0.06052    0.06074    0.07207    0.09596    0.10305    0.10370    0.16118    0.16380
   0.16652    0.16907    0.17220    0.17224    0.21974    0.22407    0.22496    0.22904
   0.24545    0.25305    0.25362    0.25423    0.25479    0.26585    0.26882    0.27516
 prteigrs : prtvol=0 or 1, do not print more k-points.

--- !EnergyTerms
iteration_state     : {dtset: 2, }
comment             : Components of total free energy in Hartree
kinetic             :  1.46228158682576E+02
hartree             :  5.59848447903020E+01
xc                  : -9.09120712065436E+01
Ewald energy        : -2.70085975968065E+02
psp_core            :  1.49595106529080E+01
local_psp           : -2.05690872389556E+02
non_local_psp       : -9.11729838407228E+00
electric            : -1.19452899903972E-03
kohn_sham           : -3.58633703822450E+02
total_energy        : -3.58634898351449E+02
total_energy_eV     : -9.75895188463336E+03
band_energy         : -3.11092095090654E+01
...

Constant unreduced E calculation  - final values:
 (a. u.)
       E:   8.628033203E-13   4.270119667E-04   1.749550928E-12
       P:  -6.691053916E-14   3.153351577E-03   7.894558030E-14

    ebar:   8.275520661E-12   4.095656877E-03   1.678070136E-11
    pbar:  -8.064694361E-12   3.800719140E-01   9.515271947E-12

       e:   6.316390662E-12   3.126059364E-03   1.280807211E-11
       p:  -6.155474954E-12   2.900944589E-01   7.262645740E-12

 (S.I.), that is V/m for E, and C/m^2 for P
-      E:   4.436712686E-01   2.195783633E+08   8.996551835E-01
       P:  -3.828270539E-12   1.804182584E-01   4.516852546E-12

 Please check: COMMENT -
  As a rough estimate,
  to be below the critical field, the bandgap of your system
  should be larger than    0.67 eV.

 Cartesian components of stress tensor (hartree/bohr^3)
  sigma(1 1)= -1.84689567E-04  sigma(3 2)=  0.00000000E+00
  sigma(2 2)= -1.92389645E-04  sigma(3 1)= -3.65588675E-09
  sigma(3 3)= -4.85024258E-04  sigma(2 1)=  0.00000000E+00

-Cartesian components of stress tensor (GPa)         [Pressure=  8.4547E+00 GPa]
- sigma(1 1)= -5.43375376E+00  sigma(3 2)=  0.00000000E+00
- sigma(2 2)= -5.66029783E+00  sigma(3 1)= -1.07559883E-04
- sigma(3 3)= -1.42699039E+01  sigma(2 1)=  0.00000000E+00

== END DATASET(S) ==============================================================

 -outvars: echo values of variables after computation  --------
            acell      9.5914334888E+00  9.5914334888E+00  9.5914334888E+00 Bohr
              amu      1.78490000E+02  1.59994000E+01
         berryopt1         -1
         berryopt2          4
          chkprim           0
             ecut      2.50000000E+01 Hartree
           ecutsm      5.00000000E-01 Hartree
           efield      8.62803320E-13  4.27011967E-04  1.74955093E-12
           etotal1    -3.5863372974E+02
           etotal2    -3.5863489835E+02
            fcart1     0.0000000000E+00 -2.3525587282E-03  5.6468863150E-22
                       0.0000000000E+00 -2.3524508890E-03  5.6468863150E-22
                       0.0000000000E+00 -2.3513858247E-03  5.6468863150E-22
                       0.0000000000E+00 -2.3518076938E-03  5.6468863150E-22
                       2.6612680767E-04  1.1733029140E-03 -4.8378066525E-05
                      -2.5860321023E-04  1.1702170678E-03 -4.2327958574E-05
                       2.6152621701E-04  1.1787182932E-03 -4.7039786181E-05
                      -2.6960633115E-04  1.1818632928E-03 -4.1955271023E-05
                       2.6960633115E-04  1.1818632928E-03  4.1955271023E-05
                      -2.6152621701E-04  1.1787182932E-03  4.7039786181E-05
                       2.5860321023E-04  1.1702170678E-03  4.2327958574E-05
                      -2.6612680767E-04  1.1733029140E-03  4.8378066525E-05
            fcart2    -3.5293039469E-23  2.3783508224E-07  0.0000000000E+00
                      -3.5293039469E-23 -1.1229003861E-06  0.0000000000E+00
                      -3.5293039469E-23  6.9725151977E-09  0.0000000000E+00
                      -3.5293039469E-23  8.8348016106E-07  0.0000000000E+00
                       2.1261168907E-06 -2.7930016990E-06 -3.5076368888E-06
                       5.3344967718E-06 -5.8823503017E-06  2.6422134975E-06
                      -2.4048419066E-06  2.7569394962E-06 -2.2117072568E-06
                      -5.6221432905E-06  5.9157188183E-06  3.1071175061E-06
                       5.6221432905E-06  5.9157188183E-06 -3.1071175061E-06
                       2.4048419066E-06  2.7569394962E-06  2.2117072568E-06
                      -5.3344967718E-06 -5.8823503017E-06 -2.6422134975E-06
                      -2.1261168907E-06 -2.7930016990E-06  3.5076368888E-06
-          fftalg         512
           getwfk1          0
           getwfk2          1
           istwfk        1    0    0    1    0    0    0    0    0    0
                         0    0    0    0    0    0    1    0    0    1
                         0    0    0    0    0    0    0    0    0    0
                         0    0    0    0    0    0    0    0    0    0
                         0    0    0    0    0    0    0    0    0    0
                       outvar_i_n : Printing only first  50 k-points.
              ixc          11
           jdtset        1    2
              kpt      0.00000000E+00  0.00000000E+00  0.00000000E+00
                       1.66666667E-01  0.00000000E+00  0.00000000E+00
                       3.33333333E-01  0.00000000E+00  0.00000000E+00
                       5.00000000E-01  0.00000000E+00  0.00000000E+00
                       0.00000000E+00  1.66666667E-01  0.00000000E+00
                       1.66666667E-01  1.66666667E-01  0.00000000E+00
                       3.33333333E-01  1.66666667E-01  0.00000000E+00
                       5.00000000E-01  1.66666667E-01  0.00000000E+00
                      -3.33333333E-01  1.66666667E-01  0.00000000E+00
                      -1.66666667E-01  1.66666667E-01  0.00000000E+00
                       0.00000000E+00  3.33333333E-01  0.00000000E+00
                       1.66666667E-01  3.33333333E-01  0.00000000E+00
                       3.33333333E-01  3.33333333E-01  0.00000000E+00
                       5.00000000E-01  3.33333333E-01  0.00000000E+00
                      -3.33333333E-01  3.33333333E-01  0.00000000E+00
                      -1.66666667E-01  3.33333333E-01  0.00000000E+00
                       0.00000000E+00  5.00000000E-01  0.00000000E+00
                       1.66666667E-01  5.00000000E-01  0.00000000E+00
                       3.33333333E-01  5.00000000E-01  0.00000000E+00
                       5.00000000E-01  5.00000000E-01  0.00000000E+00
                       0.00000000E+00  0.00000000E+00  1.66666667E-01
                       1.66666667E-01  0.00000000E+00  1.66666667E-01
                       3.33333333E-01  0.00000000E+00  1.66666667E-01
                       5.00000000E-01  0.00000000E+00  1.66666667E-01
                      -3.33333333E-01  0.00000000E+00  1.66666667E-01
                      -1.66666667E-01  0.00000000E+00  1.66666667E-01
                       0.00000000E+00  1.66666667E-01  1.66666667E-01
                       1.66666667E-01  1.66666667E-01  1.66666667E-01
                       3.33333333E-01  1.66666667E-01  1.66666667E-01
                       5.00000000E-01  1.66666667E-01  1.66666667E-01
                      -3.33333333E-01  1.66666667E-01  1.66666667E-01
                      -1.66666667E-01  1.66666667E-01  1.66666667E-01
                       0.00000000E+00  3.33333333E-01  1.66666667E-01
                       1.66666667E-01  3.33333333E-01  1.66666667E-01
                       3.33333333E-01  3.33333333E-01  1.66666667E-01
                       5.00000000E-01  3.33333333E-01  1.66666667E-01
                      -3.33333333E-01  3.33333333E-01  1.66666667E-01
                      -1.66666667E-01  3.33333333E-01  1.66666667E-01
                       0.00000000E+00  5.00000000E-01  1.66666667E-01
                       1.66666667E-01  5.00000000E-01  1.66666667E-01
                       3.33333333E-01  5.00000000E-01  1.66666667E-01
                       5.00000000E-01  5.00000000E-01  1.66666667E-01
                      -3.33333333E-01  5.00000000E-01  1.66666667E-01
                      -1.66666667E-01  5.00000000E-01  1.66666667E-01
                       0.00000000E+00 -3.33333333E-01  1.66666667E-01
                       1.66666667E-01 -3.33333333E-01  1.66666667E-01
                       3.33333333E-01 -3.33333333E-01  1.66666667E-01
                       5.00000000E-01 -3.33333333E-01  1.66666667E-01
                      -3.33333333E-01 -3.33333333E-01  1.66666667E-01
                      -1.66666667E-01 -3.33333333E-01  1.66666667E-01
                       outvar_i_n : Printing only first  50 k-points.
           kptopt           2
         kptrlatt        6    0    0      0    6    0      0    0    6
          kptrlen      5.75486009E+01
P           mkmem           4
            natom          12
            nband          48
           ndtset           2
            ngfft          45      45      45
             nkpt         112
            nstep         100
             nsym           2
           ntypat           2
              occ      2.000000  2.000000  2.000000  2.000000  2.000000  2.000000
                       2.000000  2.000000  2.000000  2.000000  2.000000  2.000000
                       2.000000  2.000000  2.000000  2.000000  2.000000  2.000000
                       2.000000  2.000000  2.000000  2.000000  2.000000  2.000000
                       2.000000  2.000000  2.000000  2.000000  2.000000  2.000000
                       2.000000  2.000000  2.000000  2.000000  2.000000  2.000000
                       2.000000  2.000000  2.000000  2.000000  2.000000  2.000000
                       2.000000  2.000000  2.000000  2.000000  2.000000  2.000000
        pawecutdg      2.50000000E+01 Hartree
         pawxcdev           0
            rfdir1          1       1       1
            rfdir2          0       0       0
           strten1    -1.8564546145E-04 -1.9074086931E-04 -4.8573715312E-04
                       0.0000000000E+00 -3.7260806556E-09  0.0000000000E+00
           strten2    -1.8468956743E-04 -1.9238964531E-04 -4.8502425818E-04
                       0.0000000000E+00 -3.6558867474E-09  0.0000000000E+00
        symmorphi           0
           symrel      1  0  0   0  1  0   0  0  1      -1  0  0   0  1  0   0  0 -1
           toldfe      1.00000000E-10 Hartree
           tolmxf      1.00000000E-05
           tsmear      4.00000000E-02 Hartree
            typat      1  1  1  1  2  2  2  2  2  2  2  2
              wtk        0.00463    0.00926    0.00926    0.00463    0.00926    0.00926
                         0.00926    0.00926    0.00926    0.00926    0.00926    0.00926
                         0.00926    0.00926    0.00926    0.00926    0.00463    0.00926
                         0.00926    0.00463    0.00926    0.00926    0.00926    0.00926
                         0.00926    0.00926    0.00926    0.00926    0.00926    0.00926
                         0.00926    0.00926    0.00926    0.00926    0.00926    0.00926
                         0.00926    0.00926    0.00926    0.00926    0.00926    0.00926
                         0.00926    0.00926    0.00926    0.00926    0.00926    0.00926
                         0.00926    0.00926
                       outvars : Printing only first  50 k-points.
           xangst      0.0000000000E+00  7.5482121603E-02  0.0000000000E+00
                       2.5377840000E+00  2.6132661216E+00  0.0000000000E+00
                       0.0000000000E+00  2.6132661216E+00  2.5377840000E+00
                       2.5377840000E+00  7.5482121603E-02  2.5377840000E+00
                       1.3261725384E+00  1.2678536784E+00  1.0166114255E+00
                       1.2116114616E+00  1.2678536784E+00  3.5543954255E+00
                       3.8639565384E+00  3.8056376784E+00  1.0166114255E+00
                       3.7493954616E+00  3.8056376784E+00  3.5543954255E+00
                       1.3261725384E+00  3.8056376784E+00  1.5211725745E+00
                       1.2116114616E+00  3.8056376784E+00  4.0589565745E+00
                       3.8639565384E+00  1.2678536784E+00  1.5211725745E+00
                       3.7493954616E+00  1.2678536784E+00  4.0589565745E+00
            xcart      0.0000000000E+00  1.4264053776E-01  0.0000000000E+00
                       4.7957167444E+00  4.9383572822E+00  0.0000000000E+00
                       0.0000000000E+00  4.9383572822E+00  4.7957167444E+00
                       4.7957167444E+00  1.4264053776E-01  4.7957167444E+00
                       2.5061029025E+00  2.3958962287E+00  1.9211171777E+00
                       2.2896138419E+00  2.3958962287E+00  6.7168339222E+00
                       7.3018196469E+00  7.1916129731E+00  1.9211171777E+00
                       7.0853305864E+00  7.1916129731E+00  6.7168339222E+00
                       2.5061029025E+00  7.1916129731E+00  2.8745995667E+00
                       2.2896138419E+00  7.1916129731E+00  7.6703163111E+00
                       7.3018196469E+00  2.3958962287E+00  2.8745995667E+00
                       7.0853305864E+00  2.3958962287E+00  7.6703163111E+00
             xred      0.0000000000E+00  1.4871660000E-02  0.0000000000E+00
                       5.0000000000E-01  5.1487166000E-01  0.0000000000E+00
                       0.0000000000E+00  5.1487166000E-01  5.0000000000E-01
                       5.0000000000E-01  1.4871660000E-02  5.0000000000E-01
                       2.6128554250E-01  2.4979542750E-01  2.0029510500E-01
                       2.3871445750E-01  2.4979542750E-01  7.0029510500E-01
                       7.6128554250E-01  7.4979542750E-01  2.0029510500E-01
                       7.3871445750E-01  7.4979542750E-01  7.0029510500E-01
                       2.6128554250E-01  7.4979542750E-01  2.9970489500E-01
                       2.3871445750E-01  7.4979542750E-01  7.9970489500E-01
                       7.6128554250E-01  2.4979542750E-01  2.9970489500E-01
                       7.3871445750E-01  2.4979542750E-01  7.9970489500E-01
            znucl       72.00000    8.00000

- Timing analysis has been suppressed with timopt=0

 Suggested references for the acknowledgment of ABINIT usage.

 Calculation completed.
.Delivered   0 WARNINGs and   2 COMMENTs to log file.