.Version 9.4.2 of ABINIT

 ABINIT is a project of the Universite Catholique de Louvain,
 Corning Inc. and other collaborators, see ~abinit/doc/developers/contributors.txt .
 acknowledgments of the ABINIT effort.

.Starting date : Thu 27 May 2021.
- ( at 13h57 )

- input  file    -> /workspace/jiahaoz/HZO/LG_Model/GroundP/HfZrO4/WaveVector/M/primitiveM
- output file    -> /workspace/jiahaoz/HZO/LG_Model/GroundP/HfZrO4/WaveVector/M/primitiveM.abo
- root for input  files -> i
- root for output files -> o

 DATASET    1 : space group P4/m m m (#123); Bravais tP (primitive tetrag.)
     intxc =       0    ionmov =       0      iscf =       7    lmnmax =       8
     lnmax =       8     mgfft =      45  mpssoang =       4    mqgrid =    3001
     natom =       6  nloc_mem =       1    nspden =       1   nspinor =       1
    nsppol =       1      nsym =      16    n1xccc =    2501    ntypat =       3
    occopt =       1   xclevel =       2
-    mband =          24        mffmem =           1         mkmem =           1
       mpw =        2638          nfft =       46080          nkpt =          12
  Rough estimation (10% accuracy) of disk space for files :

 DATASET    2 : space group P4/m m m (#123); Bravais tP (primitive tetrag.)
     intxc =       0      iscf =       7    lmnmax =       8     lnmax =       8
     mgfft =      45  mpssoang =       4    mqgrid =    3001     natom =       6
  nloc_mem =       1    nspden =       1   nspinor =       1    nsppol =       1
      nsym =      16    n1xccc =    2501    ntypat =       3    occopt =       1
   xclevel =       2
-    mband =          24        mffmem =           1         mkmem =           4
-   mkqmem =           4        mk1mem =           4           mpw =        2638
      nfft =       46080          nkpt =         144
  Rough estimation (10% accuracy) of disk space for files :

------------- Echo of variables that govern the present computation ------------
-
- outvars: echo of selected default values
-   iomode0 =  3 , fftalg0 =512 , wfoptalg0 =  0
-
- outvars: echo of global parameters not present in the input file
-  max_nthreads =    0
-
 -outvars: echo values of preprocessed input variables --------
            acell      6.7784476387E+00  6.7784476387E+00  9.5867885420E+00 Bohr
              amu      1.78490000E+02  9.12240000E+01  1.59994000E+01
             ecut      2.50000000E+01 Hartree
           ecutsm      5.00000000E-01 Hartree
-          fftalg         512
           getwfk1          0
           getwfk2          1
              ixc          11
           jdtset        1    2
              kpt1     8.33333333E-02  8.33333333E-02  1.25000000E-01
                       2.50000000E-01  8.33333333E-02  1.25000000E-01
                       4.16666667E-01  8.33333333E-02  1.25000000E-01
                       2.50000000E-01  2.50000000E-01  1.25000000E-01
                       4.16666667E-01  2.50000000E-01  1.25000000E-01
                       4.16666667E-01  4.16666667E-01  1.25000000E-01
                       8.33333333E-02  8.33333333E-02  3.75000000E-01
                       2.50000000E-01  8.33333333E-02  3.75000000E-01
                       4.16666667E-01  8.33333333E-02  3.75000000E-01
                       2.50000000E-01  2.50000000E-01  3.75000000E-01
                       4.16666667E-01  2.50000000E-01  3.75000000E-01
                       4.16666667E-01  4.16666667E-01  3.75000000E-01
              kpt2     8.33333333E-02  8.33333333E-02  1.25000000E-01
                       2.50000000E-01  8.33333333E-02  1.25000000E-01
                       4.16666667E-01  8.33333333E-02  1.25000000E-01
                      -4.16666667E-01  8.33333333E-02  1.25000000E-01
                      -2.50000000E-01  8.33333333E-02  1.25000000E-01
                      -8.33333333E-02  8.33333333E-02  1.25000000E-01
                       8.33333333E-02  2.50000000E-01  1.25000000E-01
                       2.50000000E-01  2.50000000E-01  1.25000000E-01
                       4.16666667E-01  2.50000000E-01  1.25000000E-01
                      -4.16666667E-01  2.50000000E-01  1.25000000E-01
                      -2.50000000E-01  2.50000000E-01  1.25000000E-01
                      -8.33333333E-02  2.50000000E-01  1.25000000E-01
                       8.33333333E-02  4.16666667E-01  1.25000000E-01
                       2.50000000E-01  4.16666667E-01  1.25000000E-01
                       4.16666667E-01  4.16666667E-01  1.25000000E-01
                      -4.16666667E-01  4.16666667E-01  1.25000000E-01
                      -2.50000000E-01  4.16666667E-01  1.25000000E-01
                      -8.33333333E-02  4.16666667E-01  1.25000000E-01
                       8.33333333E-02 -4.16666667E-01  1.25000000E-01
                       2.50000000E-01 -4.16666667E-01  1.25000000E-01
                       4.16666667E-01 -4.16666667E-01  1.25000000E-01
                      -4.16666667E-01 -4.16666667E-01  1.25000000E-01
                      -2.50000000E-01 -4.16666667E-01  1.25000000E-01
                      -8.33333333E-02 -4.16666667E-01  1.25000000E-01
                       8.33333333E-02 -2.50000000E-01  1.25000000E-01
                       2.50000000E-01 -2.50000000E-01  1.25000000E-01
                       4.16666667E-01 -2.50000000E-01  1.25000000E-01
                      -4.16666667E-01 -2.50000000E-01  1.25000000E-01
                      -2.50000000E-01 -2.50000000E-01  1.25000000E-01
                      -8.33333333E-02 -2.50000000E-01  1.25000000E-01
                       8.33333333E-02 -8.33333333E-02  1.25000000E-01
                       2.50000000E-01 -8.33333333E-02  1.25000000E-01
                       4.16666667E-01 -8.33333333E-02  1.25000000E-01
                      -4.16666667E-01 -8.33333333E-02  1.25000000E-01
                      -2.50000000E-01 -8.33333333E-02  1.25000000E-01
                      -8.33333333E-02 -8.33333333E-02  1.25000000E-01
                       8.33333333E-02  8.33333333E-02  3.75000000E-01
                       2.50000000E-01  8.33333333E-02  3.75000000E-01
                       4.16666667E-01  8.33333333E-02  3.75000000E-01
                      -4.16666667E-01  8.33333333E-02  3.75000000E-01
                      -2.50000000E-01  8.33333333E-02  3.75000000E-01
                      -8.33333333E-02  8.33333333E-02  3.75000000E-01
                       8.33333333E-02  2.50000000E-01  3.75000000E-01
                       2.50000000E-01  2.50000000E-01  3.75000000E-01
                       4.16666667E-01  2.50000000E-01  3.75000000E-01
                      -4.16666667E-01  2.50000000E-01  3.75000000E-01
                      -2.50000000E-01  2.50000000E-01  3.75000000E-01
                      -8.33333333E-02  2.50000000E-01  3.75000000E-01
                       8.33333333E-02  4.16666667E-01  3.75000000E-01
                       2.50000000E-01  4.16666667E-01  3.75000000E-01
                       outvar_i_n : Printing only first  50 k-points.
           kptopt1          1
           kptopt2          3
         kptrlatt        6    0    0      0    6    0      0    0    4
          kptrlen      3.83471542E+01
P           mkmem1          1
P           mkmem2          4
P          mkqmem1          1
P          mkqmem2          4
P          mk1mem1          1
P          mk1mem2          4
            natom           6
            nband1         24
            nband2         24
           ndtset           2
            ngfft          32      32      45
             nkpt1         12
             nkpt2        144
             nqpt1          0
             nqpt2          1
             nsym          16
           ntypat           3
              occ1     2.000000  2.000000  2.000000  2.000000  2.000000  2.000000
                       2.000000  2.000000  2.000000  2.000000  2.000000  2.000000
                       2.000000  2.000000  2.000000  2.000000  2.000000  2.000000
                       2.000000  2.000000  2.000000  2.000000  2.000000  2.000000
              occ2     2.000000  2.000000  2.000000  2.000000  2.000000  2.000000
                       2.000000  2.000000  2.000000  2.000000  2.000000  2.000000
                       2.000000  2.000000  2.000000  2.000000  2.000000  2.000000
                       2.000000  2.000000  2.000000  2.000000  2.000000  2.000000
        optdriver1          0
        optdriver2          1
        pawecutdg      3.00000000E+01 Hartree
         pawxcdev           0
              qpt1     0.00000000E+00  0.00000000E+00  0.00000000E+00
              qpt2     5.00000000E-01  5.00000000E-01  0.00000000E+00
          rfatpol1          1       1
          rfatpol2          1       6
            rfdir1          0       0       0
            rfdir2          1       1       1
           rfphon1          0
           rfphon2          1
           shiftk      5.00000000E-01  5.00000000E-01  5.00000000E-01
          spgroup         123
        symmorphi           0
           symrel      1  0  0   0  1  0   0  0  1      -1  0  0   0 -1  0   0  0 -1
                      -1  0  0   0  1  0   0  0 -1       1  0  0   0 -1  0   0  0  1
                      -1  0  0   0 -1  0   0  0  1       1  0  0   0  1  0   0  0 -1
                       1  0  0   0 -1  0   0  0 -1      -1  0  0   0  1  0   0  0  1
                       0  1  0   1  0  0   0  0  1       0 -1  0  -1  0  0   0  0 -1
                       0 -1  0   1  0  0   0  0 -1       0  1  0  -1  0  0   0  0  1
                       0 -1  0  -1  0  0   0  0  1       0  1  0   1  0  0   0  0 -1
                       0  1  0  -1  0  0   0  0 -1       0 -1  0   1  0  0   0  0  1
           tolvrs1     1.00000000E-18
           tolvrs2     1.00000000E-08
            typat      1  2  3  3  3  3
              wtk1       0.05556    0.11111    0.11111    0.05556    0.11111    0.05556
                         0.05556    0.11111    0.11111    0.05556    0.11111    0.05556
              wtk2       0.00694    0.00694    0.00694    0.00694    0.00694    0.00694
                         0.00694    0.00694    0.00694    0.00694    0.00694    0.00694
                         0.00694    0.00694    0.00694    0.00694    0.00694    0.00694
                         0.00694    0.00694    0.00694    0.00694    0.00694    0.00694
                         0.00694    0.00694    0.00694    0.00694    0.00694    0.00694
                         0.00694    0.00694    0.00694    0.00694    0.00694    0.00694
                         0.00694    0.00694    0.00694    0.00694    0.00694    0.00694
                         0.00694    0.00694    0.00694    0.00694    0.00694    0.00694
                         0.00694    0.00694
                       outvars : Printing only first  50 k-points.
           xangst      0.0000000000E+00  0.0000000000E+00  0.0000000000E+00
                       1.7935000000E+00  1.7935000000E+00  2.5365550000E+00
                       1.7935000000E+00  0.0000000000E+00  1.2682775000E+00
                       1.7935000000E+00  0.0000000000E+00  3.8048325000E+00
                       0.0000000000E+00  1.7935000000E+00  1.2682775000E+00
[...]
 ETOT  7   10.629163570091     -4.398E-05 7.184E-07 6.965E-03
 ETOT  8   10.629159407388     -4.163E-06 6.098E-08 2.079E-03
 ETOT  9   10.629157820537     -1.587E-06 6.921E-09 1.102E-04
 ETOT 10   10.629157739309     -8.123E-08 2.094E-09 1.003E-06
 ETOT 11   10.629157738350     -9.586E-10 3.941E-11 2.428E-07
 ETOT 12   10.629157738178     -1.719E-10 8.856E-12 4.336E-08
 ETOT 13   10.629157738157     -2.092E-11 5.861E-13 6.732E-10

 At SCF step   13       vres2   =  6.73E-10 < tolvrs=  1.00E-08 =>converged.

 ----iterations are completed or convergence reached----

 Mean square residual over all n,k,spin=   15.791E-15; max=  58.610E-14

 Thirteen components of 2nd-order total energy (hartree) are
 1,2,3: 0th-order hamiltonian combined with 1st-order wavefunctions
     kin0=   5.95212754E+03 eigvalue=  -2.29919635E+02  local=  -2.02129956E+03
 4,5,6: 1st-order hamiltonian combined with 1st and 0th-order wfs
 loc psp =  -3.21482591E+03  Hartree=   9.27297787E+02     xc=  -2.33380980E+02
 note that "loc psp" includes a xc core correction that could be resolved
 7,8,9: eventually, occupation + non-local contributions
    edocc=   0.00000000E+00     enl0=   6.46804076E+02   enl1=  -6.86843257E+03
 1-9 gives the relaxation energy (to be shifted if some occ is /=2.0)
   erelax=  -5.04162924E+03
 10,11,12 Non-relaxation  contributions : frozen-wavefunctions and Ewald
 fr.local=   1.43855980E+03 fr.nonlo=   3.44264243E+03  Ewald=   2.19151029E+02
 13,14 Frozen wf xc core corrections (1) and (2)
 frxc 1  =  -2.11894607E+02  frxc 2 =   1.63799753E+02
 Resulting in :
 2DEtotal=    0.1062915774E+02 Ha. Also 2DEtotal=    0.289234091321E+03 eV
    (2DErelax=   -5.0416292432E+03 Ha. 2DEnonrelax=    5.0522584009E+03 Ha)
    (  non-var. 2DEtotal :    1.0629162166E+01 Ha)

 ---- first-order wavefunction calculations are completed ----

 ==> Compute Derivative Database <==

  2nd-order matrix (non-cartesian coordinates, masses not included,
   asr not included )
     j1       j2             matrix element
  dir pert dir pert     real part     imaginary part

   1    1   1    1        10.5644847712         0.0000000000
   1    1   2    1        -0.0000000000         0.0000000000
   1    1   3    1        -0.0000000000         0.0000000000
   1    1   1    2         0.0000000000         0.0000000000
   1    1   2    2        -8.5811891851        -0.0000000000
   1    1   3    2         0.0000000000         0.0000000000
   1    1   1    3         0.0000000000         0.0000000000
   1    1   2    3         0.0000000000        -0.0000000000
   1    1   3    3         0.1617913943        -0.0000000000
   1    1   1    4         0.0000000000         0.0000000000
   1    1   2    4         0.0000000000        -0.0000000000
   1    1   3    4        -0.1617913943         0.0000000000
   1    1   1    5         0.0000000000        -0.0000000000
   1    1   2    5         0.0000000000        -0.0000000000
   1    1   3    5         0.0000000000         0.0000000000
   1    1   1    6         0.0000000000        -0.0000000000
   1    1   2    6        -0.0000000000        -0.0000000000
   1    1   3    6        -0.0000000000         0.0000000000

[...]

  Dynamical matrix, in cartesian coordinates,
   if specified in the inputs, asr has been imposed
     j1       j2             matrix element
  dir pert dir pert     real part    imaginary part

[...]

   3    6   1    1        -0.0000000000        -0.0000000000
   3    6   2    1        -0.0024896313        -0.0000000000
   3    6   3    1        -0.0000000000        -0.0000000000
   3    6   1    2         0.0048898795        -0.0000000000
   3    6   2    2        -0.0000000000         0.0000000000
   3    6   3    2        -0.0000000000         0.0000000000
   3    6   1    3         0.0000000000         0.0000000000
   3    6   2    3        -0.0000000000         0.0000000000
   3    6   3    3         0.0000000000         0.0000000000
   3    6   1    4        -0.0000000000         0.0000000000
   3    6   2    4        -0.0000000000         0.0000000000
   3    6   3    4        -0.0000000000         0.0000000000
   3    6   1    5         0.0000000000         0.0000000000
   3    6   2    5         0.0000000000         0.0000000000
   3    6   3    5        -0.0672270953         0.0000000000
   3    6   1    6        -0.0000000000         0.0000000000
   3    6   2    6        -0.0000000000        -0.0000000000
   3    6   3    6         0.1156518906         0.0000000000

  Phonon wavevector (reduced coordinates) :  0.50000  0.50000  0.00000
 Phonon energies in Hartree :
  -1.445186E-03 -1.342133E-03  3.968577E-04  4.501351E-04  4.501351E-04
   5.709529E-04  8.788302E-04  1.019173E-03  1.288552E-03  1.288552E-03
   1.408317E-03  1.408317E-03  2.382155E-03  2.420924E-03  2.504604E-03
   2.504604E-03  3.000988E-03  3.032044E-03
 Phonon frequencies in cm-1    :
- -3.171817E+02 -2.945640E+02  8.710020E+01  9.879322E+01  9.879322E+01
-  1.253097E+02  1.928809E+02  2.236825E+02  2.828045E+02  2.828045E+02
-  3.090899E+02  3.090899E+02  5.228225E+02  5.313314E+02  5.496970E+02
-  5.496970E+02  6.586408E+02  6.654568E+02

== END DATASET(S) ==============================================================

 -outvars: echo values of variables after computation  --------
            acell      6.7784476387E+00  6.7784476387E+00  9.5867885420E+00 Bohr
              amu      1.78490000E+02  9.12240000E+01  1.59994000E+01
             ecut      2.50000000E+01 Hartree
           ecutsm      5.00000000E-01 Hartree
           etotal1    -1.7351268594E+02
           etotal2     1.0629157738E+01
            fcart1     0.0000000000E+00  0.0000000000E+00 -1.4456028966E-19
                       0.0000000000E+00  0.0000000000E+00 -1.4456028966E-19
                       0.0000000000E+00  0.0000000000E+00 -3.5439734158E-03
                       0.0000000000E+00  0.0000000000E+00  3.5439734158E-03
                       0.0000000000E+00  0.0000000000E+00 -3.5439734158E-03
                       0.0000000000E+00  0.0000000000E+00  3.5439734158E-03
            fcart2     0.0000000000E+00  0.0000000000E+00  0.0000000000E+00
                       0.0000000000E+00  0.0000000000E+00  0.0000000000E+00
                       0.0000000000E+00  0.0000000000E+00  0.0000000000E+00
                       0.0000000000E+00  0.0000000000E+00  0.0000000000E+00
                       0.0000000000E+00  0.0000000000E+00  0.0000000000E+00
                       0.0000000000E+00  0.0000000000E+00  0.0000000000E+00
-          fftalg         512
           getwfk1          0
           getwfk2          1
              ixc          11
           jdtset        1    2
              kpt1     8.33333333E-02  8.33333333E-02  1.25000000E-01
                       2.50000000E-01  8.33333333E-02  1.25000000E-01
                       4.16666667E-01  8.33333333E-02  1.25000000E-01
                       2.50000000E-01  2.50000000E-01  1.25000000E-01
                       4.16666667E-01  2.50000000E-01  1.25000000E-01
                       4.16666667E-01  4.16666667E-01  1.25000000E-01
                       8.33333333E-02  8.33333333E-02  3.75000000E-01
                       2.50000000E-01  8.33333333E-02  3.75000000E-01
                       4.16666667E-01  8.33333333E-02  3.75000000E-01
                       2.50000000E-01  2.50000000E-01  3.75000000E-01
                       4.16666667E-01  2.50000000E-01  3.75000000E-01
                       4.16666667E-01  4.16666667E-01  3.75000000E-01
              kpt2     8.33333333E-02  8.33333333E-02  1.25000000E-01
                       2.50000000E-01  8.33333333E-02  1.25000000E-01
                       4.16666667E-01  8.33333333E-02  1.25000000E-01
                      -4.16666667E-01  8.33333333E-02  1.25000000E-01
                      -2.50000000E-01  8.33333333E-02  1.25000000E-01
                      -8.33333333E-02  8.33333333E-02  1.25000000E-01
                       8.33333333E-02  2.50000000E-01  1.25000000E-01
                       2.50000000E-01  2.50000000E-01  1.25000000E-01
                       4.16666667E-01  2.50000000E-01  1.25000000E-01
                      -4.16666667E-01  2.50000000E-01  1.25000000E-01
                      -2.50000000E-01  2.50000000E-01  1.25000000E-01
                      -8.33333333E-02  2.50000000E-01  1.25000000E-01
                       8.33333333E-02  4.16666667E-01  1.25000000E-01
                       2.50000000E-01  4.16666667E-01  1.25000000E-01
                       4.16666667E-01  4.16666667E-01  1.25000000E-01
                      -4.16666667E-01  4.16666667E-01  1.25000000E-01
                      -2.50000000E-01  4.16666667E-01  1.25000000E-01
                      -8.33333333E-02  4.16666667E-01  1.25000000E-01
                       8.33333333E-02 -4.16666667E-01  1.25000000E-01
                       2.50000000E-01 -4.16666667E-01  1.25000000E-01
                       4.16666667E-01 -4.16666667E-01  1.25000000E-01
                      -4.16666667E-01 -4.16666667E-01  1.25000000E-01
                      -2.50000000E-01 -4.16666667E-01  1.25000000E-01
                      -8.33333333E-02 -4.16666667E-01  1.25000000E-01
                       8.33333333E-02 -2.50000000E-01  1.25000000E-01
                       2.50000000E-01 -2.50000000E-01  1.25000000E-01
                       4.16666667E-01 -2.50000000E-01  1.25000000E-01
                      -4.16666667E-01 -2.50000000E-01  1.25000000E-01
                      -2.50000000E-01 -2.50000000E-01  1.25000000E-01
                      -8.33333333E-02 -2.50000000E-01  1.25000000E-01
                       8.33333333E-02 -8.33333333E-02  1.25000000E-01
                       2.50000000E-01 -8.33333333E-02  1.25000000E-01
                       4.16666667E-01 -8.33333333E-02  1.25000000E-01
                      -4.16666667E-01 -8.33333333E-02  1.25000000E-01
                      -2.50000000E-01 -8.33333333E-02  1.25000000E-01
                      -8.33333333E-02 -8.33333333E-02  1.25000000E-01
                       8.33333333E-02  8.33333333E-02  3.75000000E-01
                       2.50000000E-01  8.33333333E-02  3.75000000E-01
                       4.16666667E-01  8.33333333E-02  3.75000000E-01
                      -4.16666667E-01  8.33333333E-02  3.75000000E-01
                      -2.50000000E-01  8.33333333E-02  3.75000000E-01
                      -8.33333333E-02  8.33333333E-02  3.75000000E-01
                       8.33333333E-02  2.50000000E-01  3.75000000E-01
                       2.50000000E-01  2.50000000E-01  3.75000000E-01
                       4.16666667E-01  2.50000000E-01  3.75000000E-01
                      -4.16666667E-01  2.50000000E-01  3.75000000E-01
                      -2.50000000E-01  2.50000000E-01  3.75000000E-01
                      -8.33333333E-02  2.50000000E-01  3.75000000E-01
                       8.33333333E-02  4.16666667E-01  3.75000000E-01
                       2.50000000E-01  4.16666667E-01  3.75000000E-01
                       outvar_i_n : Printing only first  50 k-points.
           kptopt1          1
           kptopt2          3
         kptrlatt        6    0    0      0    6    0      0    0    4
          kptrlen      3.83471542E+01
P           mkmem1          1
P           mkmem2          4
P          mkqmem1          1
P          mkqmem2          4
P          mk1mem1          1
P          mk1mem2          4
            natom           6
            nband1         24
            nband2         24
           ndtset           2
            ngfft          32      32      45
             nkpt1         12
             nkpt2        144
             nqpt1          0
             nqpt2          1
             nsym          16
           ntypat           3
              occ1     2.000000  2.000000  2.000000  2.000000  2.000000  2.000000
                       2.000000  2.000000  2.000000  2.000000  2.000000  2.000000
                       2.000000  2.000000  2.000000  2.000000  2.000000  2.000000
                       2.000000  2.000000  2.000000  2.000000  2.000000  2.000000
              occ2     2.000000  2.000000  2.000000  2.000000  2.000000  2.000000
                       2.000000  2.000000  2.000000  2.000000  2.000000  2.000000
                       2.000000  2.000000  2.000000  2.000000  2.000000  2.000000
                       2.000000  2.000000  2.000000  2.000000  2.000000  2.000000
        optdriver1          0
        optdriver2          1
        pawecutdg      3.00000000E+01 Hartree
         pawxcdev           0
              qpt1     0.00000000E+00  0.00000000E+00  0.00000000E+00
              qpt2     5.00000000E-01  5.00000000E-01  0.00000000E+00
          rfatpol1          1       1
          rfatpol2          1       6
            rfdir1          0       0       0
            rfdir2          1       1       1
           rfphon1          0
           rfphon2          1
           shiftk      5.00000000E-01  5.00000000E-01  5.00000000E-01
          spgroup         123
           strten1    -1.9212567215E-04 -1.9212567215E-04 -1.4749963595E-04
                       0.0000000000E+00  0.0000000000E+00  0.0000000000E+00
           strten2     0.0000000000E+00  0.0000000000E+00  0.0000000000E+00
                       0.0000000000E+00  0.0000000000E+00  0.0000000000E+00
        symmorphi           0
           symrel      1  0  0   0  1  0   0  0  1      -1  0  0   0 -1  0   0  0 -1
                      -1  0  0   0  1  0   0  0 -1       1  0  0   0 -1  0   0  0  1
                      -1  0  0   0 -1  0   0  0  1       1  0  0   0  1  0   0  0 -1
                       1  0  0   0 -1  0   0  0 -1      -1  0  0   0  1  0   0  0  1
                       0  1  0   1  0  0   0  0  1       0 -1  0  -1  0  0   0  0 -1
                       0 -1  0   1  0  0   0  0 -1       0  1  0  -1  0  0   0  0  1
                       0 -1  0  -1  0  0   0  0  1       0  1  0   1  0  0   0  0 -1
                       0  1  0  -1  0  0   0  0 -1       0 -1  0   1  0  0   0  0  1
           tolvrs1     1.00000000E-18
           tolvrs2     1.00000000E-08
            typat      1  2  3  3  3  3
              wtk1       0.05556    0.11111    0.11111    0.05556    0.11111    0.05556
                         0.05556    0.11111    0.11111    0.05556    0.11111    0.05556
              wtk2       0.00694    0.00694    0.00694    0.00694    0.00694    0.00694
                         0.00694    0.00694    0.00694    0.00694    0.00694    0.00694
                         0.00694    0.00694    0.00694    0.00694    0.00694    0.00694
                         0.00694    0.00694    0.00694    0.00694    0.00694    0.00694
                         0.00694    0.00694    0.00694    0.00694    0.00694    0.00694
                         0.00694    0.00694    0.00694    0.00694    0.00694    0.00694
                         0.00694    0.00694    0.00694    0.00694    0.00694    0.00694
                         0.00694    0.00694    0.00694    0.00694    0.00694    0.00694
                         0.00694    0.00694
                       outvars : Printing only first  50 k-points.
           xangst      0.0000000000E+00  0.0000000000E+00  0.0000000000E+00
                       1.7935000000E+00  1.7935000000E+00  2.5365550000E+00
                       1.7935000000E+00  0.0000000000E+00  1.2682775000E+00
                       1.7935000000E+00  0.0000000000E+00  3.8048325000E+00
                       0.0000000000E+00  1.7935000000E+00  1.2682775000E+00
                       0.0000000000E+00  1.7935000000E+00  3.8048325000E+00
            xcart      0.0000000000E+00  0.0000000000E+00  0.0000000000E+00
                       3.3892238193E+00  3.3892238193E+00  4.7933942710E+00
                       3.3892238193E+00  0.0000000000E+00  2.3966971355E+00
                       3.3892238193E+00  0.0000000000E+00  7.1900914065E+00
                       0.0000000000E+00  3.3892238193E+00  2.3966971355E+00
                       0.0000000000E+00  3.3892238193E+00  7.1900914065E+00
             xred      0.0000000000E+00  0.0000000000E+00  0.0000000000E+00
                       5.0000000000E-01  5.0000000000E-01  5.0000000000E-01
                       5.0000000000E-01  0.0000000000E+00  2.5000000000E-01
                       5.0000000000E-01  0.0000000000E+00  7.5000000000E-01
                       0.0000000000E+00  5.0000000000E-01  2.5000000000E-01
                       0.0000000000E+00  5.0000000000E-01  7.5000000000E-01
            znucl       72.00000   40.00000    8.00000

- Timing analysis has been suppressed with timopt=0

 Suggested references for the acknowledgment of ABINIT usage.

 Calculation completed.
.Delivered   0 WARNINGs and   0 COMMENTs to log file.