.Version 9.4.1 of ABINIT

 ABINIT is a project of the Universite Catholique de Louvain,
 Corning Inc. and other collaborators, see ~abinit/doc/developers/contributors.txt .
 acknowledgments of the ABINIT effort.

.Starting date : Thu  3 Jun 2021.
- ( at 18h15 )

- input  file    -> /workspace/jiahaoz/HZO/LG_Model/GroundP/HfO4/WaveVector/M/primitiveM
- output file    -> /workspace/jiahaoz/HZO/LG_Model/GroundP/HfO4/WaveVector/M/primitiveM.abo
- root for input  files -> i
- root for output files -> o

 DATASET    1 : the unit cell is not primitive
     intxc =       0    ionmov =       0      iscf =       7    lmnmax =       8
     lnmax =       8     mgfft =      45  mpssoang =       4    mqgrid =    3001
     natom =       6  nloc_mem =       1    nspden =       1   nspinor =       1
    nsppol =       1      nsym =      16    n1xccc =    2501    ntypat =       2
    occopt =       1   xclevel =       2
-    mband =          24        mffmem =           1         mkmem =          12
       mpw =        2648          nfft =       46080          nkpt =         216
  Rough estimation (10% accuracy) of disk space for files :

 DATASET    2 : the unit cell is not primitive
     intxc =       0      iscf =       7    lmnmax =       8     lnmax =       8
     mgfft =      45  mpssoang =       4    mqgrid =    3001     natom =       6
  nloc_mem =       1    nspden =       1   nspinor =       1    nsppol =       1
      nsym =      16    n1xccc =    2501    ntypat =       2    occopt =       1
   xclevel =       2
-    mband =          24        mffmem =           1         mkmem =          12
-   mkqmem =          12        mk1mem =          12           mpw =        2662
      nfft =       46080          nkpt =         216
  Rough estimation (10% accuracy) of disk space for files :

------------- Echo of variables that govern the present computation ------------
-
- outvars: echo of selected default values
-   iomode0 =  3 , fftalg0 =512 , wfoptalg0 =  0
-
- outvars: echo of global parameters not present in the input file
-  max_nthreads =    0
-
 -outvars: echo values of preprocessed input variables --------
            acell      6.7821515019E+00  6.7821515019E+00  9.5914334888E+00 Bohr
              amu      1.78490000E+02  1.59994000E+01
          chkprim           0
             ecut      2.50000000E+01 Hartree
           ecutsm      5.00000000E-01 Hartree
-          fftalg         512
           getwfk1          0
           getwfk2          1
           istwfk1       2    0    0    3    0    0    0    0    0    0
                         0    0    0    0    0    0    0    0    6    0
                         0    7    0    0    0    0    0    0    0    0
                         0    0    0    0    0    0    0    0    0    0
                         0    0    0    0    0    0    0    0    0    0
           istwfk2       1    0    0    1    0    0    0    0    0    0
                         0    0    0    0    0    0    0    0    1    0
                         0    1    0    0    0    0    0    0    0    0
                         0    0    0    0    0    0    0    0    0    0
                         0    0    0    0    0    0    0    0    0    0
                       outvar_i_n : Printing only first  50 k-points.
              ixc          11
           jdtset        1    2
              kpt      0.00000000E+00  0.00000000E+00  0.00000000E+00
                       1.66666667E-01  0.00000000E+00  0.00000000E+00
                       3.33333333E-01  0.00000000E+00  0.00000000E+00
                       5.00000000E-01  0.00000000E+00  0.00000000E+00
                      -3.33333333E-01  0.00000000E+00  0.00000000E+00
                      -1.66666667E-01  0.00000000E+00  0.00000000E+00
                       0.00000000E+00  1.66666667E-01  0.00000000E+00
                       1.66666667E-01  1.66666667E-01  0.00000000E+00
                       3.33333333E-01  1.66666667E-01  0.00000000E+00
                       5.00000000E-01  1.66666667E-01  0.00000000E+00
                      -3.33333333E-01  1.66666667E-01  0.00000000E+00
                      -1.66666667E-01  1.66666667E-01  0.00000000E+00
                       0.00000000E+00  3.33333333E-01  0.00000000E+00
                       1.66666667E-01  3.33333333E-01  0.00000000E+00
                       3.33333333E-01  3.33333333E-01  0.00000000E+00
                       5.00000000E-01  3.33333333E-01  0.00000000E+00
                      -3.33333333E-01  3.33333333E-01  0.00000000E+00
                      -1.66666667E-01  3.33333333E-01  0.00000000E+00
                       0.00000000E+00  5.00000000E-01  0.00000000E+00
                       1.66666667E-01  5.00000000E-01  0.00000000E+00
                       3.33333333E-01  5.00000000E-01  0.00000000E+00
                       5.00000000E-01  5.00000000E-01  0.00000000E+00
                      -3.33333333E-01  5.00000000E-01  0.00000000E+00
                      -1.66666667E-01  5.00000000E-01  0.00000000E+00
                       0.00000000E+00 -3.33333333E-01  0.00000000E+00
                       1.66666667E-01 -3.33333333E-01  0.00000000E+00
                       3.33333333E-01 -3.33333333E-01  0.00000000E+00
                       5.00000000E-01 -3.33333333E-01  0.00000000E+00
                      -3.33333333E-01 -3.33333333E-01  0.00000000E+00
                      -1.66666667E-01 -3.33333333E-01  0.00000000E+00
                       0.00000000E+00 -1.66666667E-01  0.00000000E+00
                       1.66666667E-01 -1.66666667E-01  0.00000000E+00
                       3.33333333E-01 -1.66666667E-01  0.00000000E+00
                       5.00000000E-01 -1.66666667E-01  0.00000000E+00
                      -3.33333333E-01 -1.66666667E-01  0.00000000E+00
                      -1.66666667E-01 -1.66666667E-01  0.00000000E+00
                       0.00000000E+00  0.00000000E+00  1.66666667E-01
                       1.66666667E-01  0.00000000E+00  1.66666667E-01
                       3.33333333E-01  0.00000000E+00  1.66666667E-01
                       5.00000000E-01  0.00000000E+00  1.66666667E-01
                      -3.33333333E-01  0.00000000E+00  1.66666667E-01
                      -1.66666667E-01  0.00000000E+00  1.66666667E-01
                       0.00000000E+00  1.66666667E-01  1.66666667E-01
                       1.66666667E-01  1.66666667E-01  1.66666667E-01
                       3.33333333E-01  1.66666667E-01  1.66666667E-01
                       5.00000000E-01  1.66666667E-01  1.66666667E-01
                      -3.33333333E-01  1.66666667E-01  1.66666667E-01
                      -1.66666667E-01  1.66666667E-01  1.66666667E-01
                       0.00000000E+00  3.33333333E-01  1.66666667E-01
                       1.66666667E-01  3.33333333E-01  1.66666667E-01
                       outvar_i_n : Printing only first  50 k-points.
           kptopt           3
         kptrlatt        6    0    0      0    6    0      0    0    6
          kptrlen      4.06929043E+01
P           mkmem          12
P          mkqmem          12
P          mk1mem          12
            natom           6
            nband          24
           ndtset           2
            ngfft          32      32      45
             nkpt         216
             nqpt1          0
             nqpt2          1
            nstep         100
             nsym          16
           ntypat           2
              occ      2.000000  2.000000  2.000000  2.000000  2.000000  2.000000
                       2.000000  2.000000  2.000000  2.000000  2.000000  2.000000
                       2.000000  2.000000  2.000000  2.000000  2.000000  2.000000
                       2.000000  2.000000  2.000000  2.000000  2.000000  2.000000
        optdriver1          0
        optdriver2          1
        pawecutdg      3.00000000E+01 Hartree
         pawxcdev           0
              qpt1     0.00000000E+00  0.00000000E+00  0.00000000E+00
              qpt2     5.00000000E-01  5.00000000E-01  0.00000000E+00
          rfatpol1          1       1
          rfatpol2          1       6
            rfdir1          0       0       0
            rfdir2          1       1       1
           rfphon1          0
           rfphon2          1
            rprim      7.0710670000E-01  7.0710670000E-01  0.0000000000E+00
                      -7.0710670000E-01  7.0710670000E-01  0.0000000000E+00
                       0.0000000000E+00  0.0000000000E+00  1.0000000000E+00
        symmorphi           0
           symrel      1  0  0   0  1  0   0  0  1      -1  0  0   0 -1  0   0  0 -1
                      -1  0  0   0  1  0   0  0 -1       1  0  0   0 -1  0   0  0  1
                      -1  0  0   0 -1  0   0  0  1       1  0  0   0  1  0   0  0 -1
                       1  0  0   0 -1  0   0  0 -1      -1  0  0   0  1  0   0  0  1
                       0  1  0   1  0  0   0  0  1       0 -1  0  -1  0  0   0  0 -1
                       0 -1  0   1  0  0   0  0 -1       0  1  0  -1  0  0   0  0  1
                       0 -1  0  -1  0  0   0  0  1       0  1  0   1  0  0   0  0 -1
                       0  1  0  -1  0  0   0  0 -1       0 -1  0   1  0  0   0  0  1
           toldfe1     1.00000000E-13 Hartree
           toldfe2     0.00000000E+00 Hartree
           tolvrs1     0.00000000E+00
           tolvrs2     1.00000000E-13
            typat      1  1  2  2  2  2
              wtk        0.00463    0.00463    0.00463    0.00463    0.00463    0.00463
                         0.00463    0.00463    0.00463    0.00463    0.00463    0.00463
                         0.00463    0.00463    0.00463    0.00463    0.00463    0.00463
                         0.00463    0.00463    0.00463    0.00463    0.00463    0.00463
                         0.00463    0.00463    0.00463    0.00463    0.00463    0.00463
                         0.00463    0.00463    0.00463    0.00463    0.00463    0.00463
                         0.00463    0.00463    0.00463    0.00463    0.00463    0.00463
                         0.00463    0.00463    0.00463    0.00463    0.00463    0.00463
                         0.00463    0.00463
                       outvars : Printing only first  50 k-points.
           xangst      0.0000000000E+00  0.0000000000E+00  0.0000000000E+00
                       0.0000000000E+00  2.5377776620E+00  2.5377840000E+00
                       1.2688888310E+00  1.2688888310E+00  1.2688920000E+00
                       1.2688888310E+00  1.2688888310E+00  3.8066760000E+00
                      -1.2688888310E+00  1.2688888310E+00  1.2688920000E+00
                      -1.2688888310E+00  1.2688888310E+00  3.8066760000E+00
            xcart      0.0000000000E+00  0.0000000000E+00  0.0000000000E+00
                       0.0000000000E+00  4.7957047674E+00  4.7957167444E+00
                       2.3978523837E+00  2.3978523837E+00  2.3978583722E+00
                       2.3978523837E+00  2.3978523837E+00  7.1935751166E+00
                      -2.3978523837E+00  2.3978523837E+00  2.3978583722E+00
                      -2.3978523837E+00  2.3978523837E+00  7.1935751166E+00
[...]
 ETOT  3   10.516456635320     -2.264E-01 5.701E-03 1.844E+01
 ETOT  4   10.503415949735     -1.304E-02 2.579E-04 4.225E-01
 ETOT  5   10.503110298678     -3.057E-04 1.470E-05 2.056E-01
 ETOT  6   10.503023800886     -8.650E-05 1.537E-06 9.057E-02
 ETOT  7   10.502954053985     -6.975E-05 1.585E-07 2.045E-04
 ETOT  8   10.502953806570     -2.474E-07 1.686E-08 2.443E-05
 ETOT  9   10.502953806078     -4.920E-10 6.410E-10 1.973E-05
 ETOT 10   10.502953793744     -1.233E-08 6.789E-11 5.911E-06
 ETOT 11   10.502953790596     -3.149E-09 1.178E-11 3.989E-08
 ETOT 12   10.502953790577     -1.910E-11 5.664E-13 9.591E-09
 ETOT 13   10.502953790578      1.819E-12 2.436E-14 8.393E-11
 ETOT 14   10.502953790567     -1.182E-11 3.433E-15 1.513E-11
 ETOT 15   10.502953790568      1.819E-12 1.146E-16 1.372E-12
 ETOT 16   10.502953790575      6.366E-12 1.925E-17 2.552E-13
 ETOT 17   10.502953790558     -1.728E-11 1.547E-18 9.405E-15

 At SCF step   17       vres2   =  9.41E-15 < tolvrs=  1.00E-13 =>converged.

 ----iterations are completed or convergence reached----

 Mean square residual over all n,k,spin=   67.798E-21; max=  15.469E-19

 Thirteen components of 2nd-order total energy (hartree) are
 1,2,3: 0th-order hamiltonian combined with 1st-order wavefunctions
     kin0=   5.94792665E+03 eigvalue=  -2.17236657E+02  local=  -2.02542654E+03
 4,5,6: 1st-order hamiltonian combined with 1st and 0th-order wfs
 loc psp =  -3.21726251E+03  Hartree=   9.28423553E+02     xc=  -2.33449465E+02
 note that "loc psp" includes a xc core correction that could be resolved
 7,8,9: eventually, occupation + non-local contributions
    edocc=   0.00000000E+00     enl0=   6.46014411E+02   enl1=  -6.87524139E+03
 1-9 gives the relaxation energy (to be shifted if some occ is /=2.0)
   erelax=  -5.04625195E+03
 10,11,12 Non-relaxation  contributions : frozen-wavefunctions and Ewald
 fr.local=   1.43983977E+03 fr.nonlo=   3.44605349E+03  Ewald=   2.19019872E+02
 13,14 Frozen wf xc core corrections (1) and (2)
 frxc 1  =  -2.12139450E+02  frxc 2 =   1.63981220E+02
 Resulting in :
 2DEtotal=    0.1050295379E+02 Ha. Also 2DEtotal=    0.285799907259E+03 eV
    (2DErelax=   -5.0462519515E+03 Ha. 2DEnonrelax=    5.0567549053E+03 Ha)
    (  non-var. 2DEtotal :    1.0502953783E+01 Ha)

 ---- first-order wavefunction calculations are completed ----

 ==> Compute Derivative Database <==

  2nd-order matrix (non-cartesian coordinates, masses not included,
   asr not included )
     j1       j2             matrix element
  dir pert dir pert     real part     imaginary part

   1    1   1    1        10.9254740968         0.0000000000
   1    1   2    1         0.0000000000         0.0000000000
   1    1   3    1        -0.0000000000         0.0000000000
   1    1   1    2        -0.0000000000         0.0000000000
   1    1   2    2        -8.5681510767         0.0000000004
   1    1   3    2        -0.0000000000         0.0000000000
   1    1   1    3         0.0000000000         0.0000000000
   1    1   2    3         0.0000000000         0.0000000000
   1    1   3    3         0.0232551516         0.0000000006
   1    1   1    4        -0.0000000000         0.0000000000
   1    1   2    4         0.0000000000         0.0000000000
   1    1   3    4        -0.0232551516        -0.0000000006
   1    1   1    5        -0.0000000000         0.0000000000
   1    1   2    5        -0.0000000000        -0.0000000000
   1    1   3    5        -0.0000000000         0.0000000000
   1    1   1    6        -0.0000000000        -0.0000000000
   1    1   2    6         0.0000000000        -0.0000000000
   1    1   3    6         0.0000000000         0.0000000000

[...]

  Dynamical matrix, in cartesian coordinates,
   if specified in the inputs, asr has been imposed
     j1       j2             matrix element
  dir pert dir pert     real part    imaginary part

[...]

   3    6   1    1         0.0002527862         0.0000000000
   3    6   2    1        -0.0002527862        -0.0000000000
   3    6   3    1         0.0000000000        -0.0000000000
   3    6   1    2        -0.0002699246        -0.0000000000
   3    6   2    2        -0.0002699246        -0.0000000000
   3    6   3    2         0.0000000000         0.0000000000
   3    6   1    3         0.0000000000         0.0000000000
   3    6   2    3        -0.0000000000         0.0000000000
   3    6   3    3         0.0000000000         0.0000000000
   3    6   1    4         0.0000000000         0.0000000000
   3    6   2    4        -0.0000000000         0.0000000000
   3    6   3    4         0.0000000000         0.0000000000
   3    6   1    5         0.0000000000         0.0000000000
   3    6   2    5        -0.0000000000         0.0000000000
   3    6   3    5        -0.0687940959         0.0000000000
   3    6   1    6         0.0000000000        -0.0000000000
   3    6   2    6         0.0000000000         0.0000000000
   3    6   3    6         0.1141680058         0.0000000000

  Phonon wavevector (reduced coordinates) :  0.50000  0.50000  0.00000
 Phonon energies in Hartree :
  -1.440331E-03 -1.439879E-03  3.968922E-04  3.968922E-04  3.969267E-04
   3.969427E-04  8.933844E-04  8.941423E-04  1.141289E-03  1.141289E-03
   1.247301E-03  1.247301E-03  2.397920E-03  2.398319E-03  2.504661E-03
   2.504661E-03  3.016241E-03  3.016526E-03
 Phonon frequencies in cm-1    :
- -3.161162E+02 -3.160168E+02  8.710778E+01  8.710778E+01  8.711535E+01
-  8.711885E+01  1.960752E+02  1.962415E+02  2.504839E+02  2.504839E+02
-  2.737509E+02  2.737509E+02  5.262826E+02  5.263703E+02  5.497096E+02
-  5.497096E+02  6.619883E+02  6.620509E+02

== END DATASET(S) ==============================================================

 -outvars: echo values of variables after computation  --------
            acell      6.7821515019E+00  6.7821515019E+00  9.5914334888E+00 Bohr
              amu      1.78490000E+02  1.59994000E+01
          chkprim           0
             ecut      2.50000000E+01 Hartree
           ecutsm      5.00000000E-01 Hartree
           etotal1    -1.7931033542E+02
           etotal2     1.0502953791E+01
            fcart1     0.0000000000E+00  0.0000000000E+00 -5.6468863150E-22
                       0.0000000000E+00  0.0000000000E+00 -5.6468863150E-22
                       0.0000000000E+00  0.0000000000E+00  1.7600640950E-05
                       0.0000000000E+00  0.0000000000E+00 -1.7600640950E-05
                       0.0000000000E+00  0.0000000000E+00  1.7600640950E-05
                       0.0000000000E+00  0.0000000000E+00 -1.7600640950E-05
            fcart2     0.0000000000E+00  0.0000000000E+00  0.0000000000E+00
                       0.0000000000E+00  0.0000000000E+00  0.0000000000E+00
                       0.0000000000E+00  0.0000000000E+00  0.0000000000E+00
                       0.0000000000E+00  0.0000000000E+00  0.0000000000E+00
                       0.0000000000E+00  0.0000000000E+00  0.0000000000E+00
                       0.0000000000E+00  0.0000000000E+00  0.0000000000E+00
-          fftalg         512
           getwfk1          0
           getwfk2          1
           istwfk1       2    0    0    3    0    0    0    0    0    0
                         0    0    0    0    0    0    0    0    6    0
                         0    7    0    0    0    0    0    0    0    0
                         0    0    0    0    0    0    0    0    0    0
                         0    0    0    0    0    0    0    0    0    0
           istwfk2       1    0    0    1    0    0    0    0    0    0
                         0    0    0    0    0    0    0    0    1    0
                         0    1    0    0    0    0    0    0    0    0
                         0    0    0    0    0    0    0    0    0    0
                         0    0    0    0    0    0    0    0    0    0
                       outvar_i_n : Printing only first  50 k-points.
              ixc          11
           jdtset        1    2
              kpt      0.00000000E+00  0.00000000E+00  0.00000000E+00
                       1.66666667E-01  0.00000000E+00  0.00000000E+00
                       3.33333333E-01  0.00000000E+00  0.00000000E+00
                       5.00000000E-01  0.00000000E+00  0.00000000E+00
                      -3.33333333E-01  0.00000000E+00  0.00000000E+00
                      -1.66666667E-01  0.00000000E+00  0.00000000E+00
                       0.00000000E+00  1.66666667E-01  0.00000000E+00
                       1.66666667E-01  1.66666667E-01  0.00000000E+00
                       3.33333333E-01  1.66666667E-01  0.00000000E+00
                       5.00000000E-01  1.66666667E-01  0.00000000E+00
                      -3.33333333E-01  1.66666667E-01  0.00000000E+00
                      -1.66666667E-01  1.66666667E-01  0.00000000E+00
                       0.00000000E+00  3.33333333E-01  0.00000000E+00
                       1.66666667E-01  3.33333333E-01  0.00000000E+00
                       3.33333333E-01  3.33333333E-01  0.00000000E+00
                       5.00000000E-01  3.33333333E-01  0.00000000E+00
                      -3.33333333E-01  3.33333333E-01  0.00000000E+00
                      -1.66666667E-01  3.33333333E-01  0.00000000E+00
                       0.00000000E+00  5.00000000E-01  0.00000000E+00
                       1.66666667E-01  5.00000000E-01  0.00000000E+00
                       3.33333333E-01  5.00000000E-01  0.00000000E+00
                       5.00000000E-01  5.00000000E-01  0.00000000E+00
                      -3.33333333E-01  5.00000000E-01  0.00000000E+00
                      -1.66666667E-01  5.00000000E-01  0.00000000E+00
                       0.00000000E+00 -3.33333333E-01  0.00000000E+00
                       1.66666667E-01 -3.33333333E-01  0.00000000E+00
                       3.33333333E-01 -3.33333333E-01  0.00000000E+00
                       5.00000000E-01 -3.33333333E-01  0.00000000E+00
                      -3.33333333E-01 -3.33333333E-01  0.00000000E+00
                      -1.66666667E-01 -3.33333333E-01  0.00000000E+00
                       0.00000000E+00 -1.66666667E-01  0.00000000E+00
                       1.66666667E-01 -1.66666667E-01  0.00000000E+00
                       3.33333333E-01 -1.66666667E-01  0.00000000E+00
                       5.00000000E-01 -1.66666667E-01  0.00000000E+00
                      -3.33333333E-01 -1.66666667E-01  0.00000000E+00
                      -1.66666667E-01 -1.66666667E-01  0.00000000E+00
                       0.00000000E+00  0.00000000E+00  1.66666667E-01
                       1.66666667E-01  0.00000000E+00  1.66666667E-01
                       3.33333333E-01  0.00000000E+00  1.66666667E-01
                       5.00000000E-01  0.00000000E+00  1.66666667E-01
                      -3.33333333E-01  0.00000000E+00  1.66666667E-01
                      -1.66666667E-01  0.00000000E+00  1.66666667E-01
                       0.00000000E+00  1.66666667E-01  1.66666667E-01
                       1.66666667E-01  1.66666667E-01  1.66666667E-01
                       3.33333333E-01  1.66666667E-01  1.66666667E-01
                       5.00000000E-01  1.66666667E-01  1.66666667E-01
                      -3.33333333E-01  1.66666667E-01  1.66666667E-01
                      -1.66666667E-01  1.66666667E-01  1.66666667E-01
                       0.00000000E+00  3.33333333E-01  1.66666667E-01
                       1.66666667E-01  3.33333333E-01  1.66666667E-01
                       outvar_i_n : Printing only first  50 k-points.
           kptopt           3
         kptrlatt        6    0    0      0    6    0      0    0    6
          kptrlen      4.06929043E+01
P           mkmem          12
P          mkqmem          12
P          mk1mem          12
            natom           6
            nband          24
           ndtset           2
            ngfft          32      32      45
             nkpt         216
             nqpt1          0
             nqpt2          1
            nstep         100
             nsym          16
           ntypat           2
              occ      2.000000  2.000000  2.000000  2.000000  2.000000  2.000000
                       2.000000  2.000000  2.000000  2.000000  2.000000  2.000000
                       2.000000  2.000000  2.000000  2.000000  2.000000  2.000000
                       2.000000  2.000000  2.000000  2.000000  2.000000  2.000000
        optdriver1          0
        optdriver2          1
        pawecutdg      3.00000000E+01 Hartree
         pawxcdev           0
              qpt1     0.00000000E+00  0.00000000E+00  0.00000000E+00
              qpt2     5.00000000E-01  5.00000000E-01  0.00000000E+00
          rfatpol1          1       1
          rfatpol2          1       6
            rfdir1          0       0       0
            rfdir2          1       1       1
           rfphon1          0
           rfphon2          1
            rprim      7.0710670000E-01  7.0710670000E-01  0.0000000000E+00
                      -7.0710670000E-01  7.0710670000E-01  0.0000000000E+00
                       0.0000000000E+00  0.0000000000E+00  1.0000000000E+00
           strten1    -9.0761522840E-05 -9.0761522840E-05 -9.8824685013E-05
                       0.0000000000E+00  0.0000000000E+00  0.0000000000E+00
           strten2     0.0000000000E+00  0.0000000000E+00  0.0000000000E+00
                       0.0000000000E+00  0.0000000000E+00  0.0000000000E+00
        symmorphi           0
           symrel      1  0  0   0  1  0   0  0  1      -1  0  0   0 -1  0   0  0 -1
                      -1  0  0   0  1  0   0  0 -1       1  0  0   0 -1  0   0  0  1
                      -1  0  0   0 -1  0   0  0  1       1  0  0   0  1  0   0  0 -1
                       1  0  0   0 -1  0   0  0 -1      -1  0  0   0  1  0   0  0  1
                       0  1  0   1  0  0   0  0  1       0 -1  0  -1  0  0   0  0 -1
                       0 -1  0   1  0  0   0  0 -1       0  1  0  -1  0  0   0  0  1
                       0 -1  0  -1  0  0   0  0  1       0  1  0   1  0  0   0  0 -1
                       0  1  0  -1  0  0   0  0 -1       0 -1  0   1  0  0   0  0  1
           toldfe1     1.00000000E-13 Hartree
           toldfe2     0.00000000E+00 Hartree
           tolvrs1     0.00000000E+00
           tolvrs2     1.00000000E-13
            typat      1  1  2  2  2  2
              wtk        0.00463    0.00463    0.00463    0.00463    0.00463    0.00463
                         0.00463    0.00463    0.00463    0.00463    0.00463    0.00463
                         0.00463    0.00463    0.00463    0.00463    0.00463    0.00463
                         0.00463    0.00463    0.00463    0.00463    0.00463    0.00463
                         0.00463    0.00463    0.00463    0.00463    0.00463    0.00463
                         0.00463    0.00463    0.00463    0.00463    0.00463    0.00463
                         0.00463    0.00463    0.00463    0.00463    0.00463    0.00463
                         0.00463    0.00463    0.00463    0.00463    0.00463    0.00463
                         0.00463    0.00463
                       outvars : Printing only first  50 k-points.
           xangst      0.0000000000E+00  0.0000000000E+00  0.0000000000E+00
                       0.0000000000E+00  2.5377776620E+00  2.5377840000E+00
                       1.2688888310E+00  1.2688888310E+00  1.2688920000E+00
                       1.2688888310E+00  1.2688888310E+00  3.8066760000E+00
                      -1.2688888310E+00  1.2688888310E+00  1.2688920000E+00
                      -1.2688888310E+00  1.2688888310E+00  3.8066760000E+00
            xcart      0.0000000000E+00  0.0000000000E+00  0.0000000000E+00
                       0.0000000000E+00  4.7957047674E+00  4.7957167444E+00
                       2.3978523837E+00  2.3978523837E+00  2.3978583722E+00
                       2.3978523837E+00  2.3978523837E+00  7.1935751166E+00
                      -2.3978523837E+00  2.3978523837E+00  2.3978583722E+00
                      -2.3978523837E+00  2.3978523837E+00  7.1935751166E+00
             xred      0.0000000000E+00  0.0000000000E+00  0.0000000000E+00
                       5.0000000000E-01  5.0000000000E-01  5.0000000000E-01
                       5.0000000000E-01  0.0000000000E+00  2.5000000000E-01
                       5.0000000000E-01  0.0000000000E+00  7.5000000000E-01
                       0.0000000000E+00  5.0000000000E-01  2.5000000000E-01
                       0.0000000000E+00  5.0000000000E-01  7.5000000000E-01
            znucl       72.00000    8.00000

- Timing analysis has been suppressed with timopt=0

 Suggested references for the acknowledgment of ABINIT usage.

 Calculation completed.
.Delivered   0 WARNINGs and   0 COMMENTs to log file.