.Version 9.4.1 of ABINIT

 ABINIT is a project of the Universite Catholique de Louvain,
 Corning Inc. and other collaborators, see ~abinit/doc/developers/contributors.txt .
 acknowledgments of the ABINIT effort.

.Starting date : Fri  4 Jun 2021.
- ( at 08h44 )

- input  file    -> /workspace/jiahaoz/HZO/LG_Model/GroundP/HfO4/WaveVector/Gamma/primitiveGa
- output file    -> /workspace/jiahaoz/HZO/LG_Model/GroundP/HfO4/WaveVector/Gamma/primitiveGa.abo
- root for input  files -> i
- root for output files -> o

 DATASET    1 : the unit cell is not primitive
     intxc =       0    ionmov =       0      iscf =       7    lmnmax =       8
     lnmax =       8     mgfft =      45  mpssoang =       4    mqgrid =    3001
     natom =       6  nloc_mem =       1    nspden =       1   nspinor =       1
    nsppol =       1      nsym =      16    n1xccc =    2501    ntypat =       2
    occopt =       1   xclevel =       2
-    mband =          24        mffmem =           1         mkmem =          16
       mpw =        2654          nfft =       46080          nkpt =         288
  Rough estimation (10% accuracy) of disk space for files :

 DATASET    2 : the unit cell is not primitive
     intxc =       0    ionmov =       0      iscf =      -2    lmnmax =       8
     lnmax =       8     mgfft =      45  mpssoang =       4    mqgrid =    3001
     natom =       6  nloc_mem =       1    nspden =       1   nspinor =       1
    nsppol =       1      nsym =      16    n1xccc =    2501    ntypat =       2
    occopt =       1   xclevel =       2
-    mband =          24        mffmem =           1         mkmem =          16
       mpw =        2662          nfft =       46080          nkpt =         288
  Rough estimation (10% accuracy) of disk space for files :

 DATASET    3 : the unit cell is not primitive
     intxc =       0      iscf =       7    lmnmax =       8     lnmax =       8
     mgfft =      45  mpssoang =       4    mqgrid =    3001     natom =       6
  nloc_mem =       1    nspden =       1   nspinor =       1    nsppol =       1
      nsym =      16    n1xccc =    2501    ntypat =       2    occopt =       1
   xclevel =       2
-    mband =          24        mffmem =           1         mkmem =          16
-   mkqmem =          16        mk1mem =          16           mpw =        2662
      nfft =       46080          nkpt =         288
  Rough estimation (10% accuracy) of disk space for files :

------------- Echo of variables that govern the present computation ------------
-
- outvars: echo of selected default values
-   iomode0 =  3 , fftalg0 =512 , wfoptalg0 =  0
-
- outvars: echo of global parameters not present in the input file
-  max_nthreads =    0
-
 -outvars: echo values of preprocessed input variables --------
            acell      6.7821676613E+00  6.7821676613E+00  9.5914334888E+00 Bohr
              amu      1.78490000E+02  1.59994000E+01
         berryopt1          0
         berryopt2         -2
         berryopt3          0
          chkprim           0
             ecut      2.50000000E+01 Hartree
           ecutsm      5.00000000E-01 Hartree
-          fftalg         512
           getddk1          0
           getddk2          0
           getddk3          2
           getden1          0
           getden2          1
           getden3          0
           getwfk1          0
           getwfk2          1
           getwfk3          2
             iscf1          7
             iscf2         -2
             iscf3          7
           istwfk1       2    0    0    3    0    0    0    0    0    0
                         0    0    0    0    0    0    0    0    6    0
                         0    7    0    0    0    0    0    0    0    0
                         0    0    0    0    0    0    0    0    0    0
                         0    0    0    0    0    0    0    0    0    0
           istwfk2       1    0    0    1    0    0    0    0    0    0
                         0    0    0    0    0    0    0    0    1    0
                         0    1    0    0    0    0    0    0    0    0
                         0    0    0    0    0    0    0    0    0    0
                         0    0    0    0    0    0    0    0    0    0
           istwfk3       1    0    0    1    0    0    0    0    0    0
                         0    0    0    0    0    0    0    0    1    0
                         0    1    0    0    0    0    0    0    0    0
                         0    0    0    0    0    0    0    0    0    0
                         0    0    0    0    0    0    0    0    0    0
                       outvar_i_n : Printing only first  50 k-points.
              ixc          11
           jdtset        1    2    3
              kpt      0.00000000E+00  0.00000000E+00  0.00000000E+00
                       1.66666667E-01  0.00000000E+00  0.00000000E+00
                       3.33333333E-01  0.00000000E+00  0.00000000E+00
                       5.00000000E-01  0.00000000E+00  0.00000000E+00
                      -3.33333333E-01  0.00000000E+00  0.00000000E+00
                      -1.66666667E-01  0.00000000E+00  0.00000000E+00
                       0.00000000E+00  1.66666667E-01  0.00000000E+00
                       1.66666667E-01  1.66666667E-01  0.00000000E+00
                       3.33333333E-01  1.66666667E-01  0.00000000E+00
                       5.00000000E-01  1.66666667E-01  0.00000000E+00
                      -3.33333333E-01  1.66666667E-01  0.00000000E+00
                      -1.66666667E-01  1.66666667E-01  0.00000000E+00
                       0.00000000E+00  3.33333333E-01  0.00000000E+00
                       1.66666667E-01  3.33333333E-01  0.00000000E+00
                       3.33333333E-01  3.33333333E-01  0.00000000E+00
                       5.00000000E-01  3.33333333E-01  0.00000000E+00
                      -3.33333333E-01  3.33333333E-01  0.00000000E+00
                      -1.66666667E-01  3.33333333E-01  0.00000000E+00
                       0.00000000E+00  5.00000000E-01  0.00000000E+00
                       1.66666667E-01  5.00000000E-01  0.00000000E+00
                       3.33333333E-01  5.00000000E-01  0.00000000E+00
                       5.00000000E-01  5.00000000E-01  0.00000000E+00
                      -3.33333333E-01  5.00000000E-01  0.00000000E+00
                      -1.66666667E-01  5.00000000E-01  0.00000000E+00
                       0.00000000E+00 -3.33333333E-01  0.00000000E+00
                       1.66666667E-01 -3.33333333E-01  0.00000000E+00
                       3.33333333E-01 -3.33333333E-01  0.00000000E+00
                       5.00000000E-01 -3.33333333E-01  0.00000000E+00
                      -3.33333333E-01 -3.33333333E-01  0.00000000E+00
                      -1.66666667E-01 -3.33333333E-01  0.00000000E+00
                       0.00000000E+00 -1.66666667E-01  0.00000000E+00
                       1.66666667E-01 -1.66666667E-01  0.00000000E+00
                       3.33333333E-01 -1.66666667E-01  0.00000000E+00
                       5.00000000E-01 -1.66666667E-01  0.00000000E+00
                      -3.33333333E-01 -1.66666667E-01  0.00000000E+00
                      -1.66666667E-01 -1.66666667E-01  0.00000000E+00
                       0.00000000E+00  0.00000000E+00  1.25000000E-01
                       1.66666667E-01  0.00000000E+00  1.25000000E-01
                       3.33333333E-01  0.00000000E+00  1.25000000E-01
                       5.00000000E-01  0.00000000E+00  1.25000000E-01
                      -3.33333333E-01  0.00000000E+00  1.25000000E-01
                      -1.66666667E-01  0.00000000E+00  1.25000000E-01
                       0.00000000E+00  1.66666667E-01  1.25000000E-01
                       1.66666667E-01  1.66666667E-01  1.25000000E-01
                       3.33333333E-01  1.66666667E-01  1.25000000E-01
                       5.00000000E-01  1.66666667E-01  1.25000000E-01
                      -3.33333333E-01  1.66666667E-01  1.25000000E-01
                      -1.66666667E-01  1.66666667E-01  1.25000000E-01
                       0.00000000E+00  3.33333333E-01  1.25000000E-01
                       1.66666667E-01  3.33333333E-01  1.25000000E-01
                       outvar_i_n : Printing only first  50 k-points.
           kptopt           3
         kptrlatt        6    0    0      0    6    0      0    0    8
          kptrlen      4.06930013E+01
P           mkmem          16
P          mkqmem          16
P          mk1mem          16
            natom           6
            nband          24
           nbdbuf1          0
           nbdbuf2          2
           nbdbuf3          0
           ndtset           3
            ngfft          32      32      45
             nkpt         288
             nqpt1          0
             nqpt2          0
             nqpt3          1
            nstep1        100
            nstep2         30
            nstep3        100
             nsym          16
           ntypat           2
              occ      2.000000  2.000000  2.000000  2.000000  2.000000  2.000000
                       2.000000  2.000000  2.000000  2.000000  2.000000  2.000000
                       2.000000  2.000000  2.000000  2.000000  2.000000  2.000000
                       2.000000  2.000000  2.000000  2.000000  2.000000  2.000000
        optdriver1          0
        optdriver2          0
        optdriver3          1
        pawecutdg      3.00000000E+01 Hartree
         pawxcdev           0
           prtden1          1
           prtden2          0
           prtden3          0
           prteig           0
            prtwf1          1
            prtwf2          1
            prtwf3          0
          rfatpol1          1       1
          rfatpol2          1       1
          rfatpol3          1       6
            rfdir1          0       0       0
            rfdir2          1       1       1
            rfdir3          1       1       1
           rfelfd1          0
           rfelfd2          0
           rfelfd3          3
           rfphon1          0
           rfphon2          0
           rfphon3          1
           rfstrs1          0
           rfstrs2          0
           rfstrs3          3
            rprim      7.0710670000E-01  7.0710670000E-01  0.0000000000E+00
                      -7.0710670000E-01  7.0710670000E-01  0.0000000000E+00
                       0.0000000000E+00  0.0000000000E+00  1.0000000000E+00
        symmorphi           0
           symrel      1  0  0   0  1  0   0  0  1      -1  0  0   0 -1  0   0  0 -1
                      -1  0  0   0  1  0   0  0 -1       1  0  0   0 -1  0   0  0  1
                      -1  0  0   0 -1  0   0  0  1       1  0  0   0  1  0   0  0 -1
                       1  0  0   0 -1  0   0  0 -1      -1  0  0   0  1  0   0  0  1
                       0  1  0   1  0  0   0  0  1       0 -1  0  -1  0  0   0  0 -1
                       0 -1  0   1  0  0   0  0 -1       0  1  0  -1  0  0   0  0  1
                       0 -1  0  -1  0  0   0  0  1       0  1  0   1  0  0   0  0 -1
                       0  1  0  -1  0  0   0  0 -1       0 -1  0   1  0  0   0  0  1
[...]
   1    1   3    9         0.0000000000         0.0000000000
   1    1   1   10        -0.0000000000         0.0000000000
   1    1   2   10        -0.0000000000         0.0000000000
   1    1   3   10        -0.0000000000         0.0000000000

[...]

  Dynamical matrix, in cartesian coordinates,
   if specified in the inputs, asr has been imposed
     j1       j2             matrix element
  dir pert dir pert     real part    imaginary part

[...]

  Dielectric tensor, in cartesian coordinates,
     j1       j2             matrix element
  dir pert dir pert     real part    imaginary part

[...]

  Effective charges, in cartesian coordinates,
  (from electric field response)
   if specified in the inputs, asr has been imposed
     j1       j2             matrix element
  dir pert dir pert     real part    imaginary part

[...]

  Effective charges, in cartesian coordinates,
  (from phonon response)
   if specified in the inputs, asr has been imposed
     j1       j2             matrix element
  dir pert dir pert     real part    imaginary part

[...]

  Rigid-atom elastic tensor , in cartesian coordinates,
     j1       j2             matrix element
  dir pert dir pert     real part    imaginary part

[...]

  Internal strain coupling parameters, in cartesian coordinates,
   zero average net force deriv. has been imposed
     j1       j2             matrix element
  dir pert dir pert     real part    imaginary part

[...]

  Rigid-atom proper piezoelectric tensor, in cartesian coordinates,
  (from strain response)
     j1       j2             matrix element
  dir pert dir pert     real part    imaginary part

[...]

   3    8   1    9         0.0000000000         0.0000000000
   3    8   2    9         0.0000000000         0.0000000000
   3    8   3    9         0.0000000000         0.0000000000
   3    8   1   10         0.0000000000         0.0000000000
   3    8   2   10         0.0000000000         0.0000000000
   3    8   3   10         0.0000000000         0.0000000000

  Phonon wavevector (reduced coordinates) :  0.00000  0.00000  0.00000
 Phonon energies in Hartree :
  -1.116659E-03 -2.510459E-04 -2.510459E-04  2.055242E-05  3.968936E-04
   3.968936E-04  8.190048E-04  8.190048E-04  9.573146E-04  1.141318E-03
   1.142886E-03  1.142886E-03  2.503101E-03  2.503101E-03  2.572481E-03
   2.572481E-03  2.584862E-03  3.109374E-03
 Phonon frequencies in cm-1    :
- -2.450783E+02 -5.509821E+01 -5.509821E+01  4.510736E+00  8.710809E+01
-  8.710809E+01  1.797508E+02  1.797508E+02  2.101063E+02  2.504903E+02
-  2.508345E+02  2.508345E+02  5.493672E+02  5.493672E+02  5.645943E+02
-  5.645943E+02  5.673117E+02  6.824286E+02

  Phonon at Gamma, with non-analyticity in the
  direction (cartesian coordinates)  1.00000  0.00000  0.00000
 Phonon energies in Hartree :
  -1.116659E-03 -2.510459E-04 -2.186099E-04  2.055242E-05  3.968936E-04
   3.968936E-04  8.190048E-04  9.573146E-04  1.141318E-03  1.142886E-03
   1.142886E-03  2.503101E-03  2.503101E-03  2.572481E-03  2.572481E-03
   2.584862E-03  2.774976E-03  3.109374E-03
 Phonon frequencies in cm-1    :
- -2.450783E+02 -5.509821E+01 -4.797932E+01  4.510736E+00  8.710809E+01
-  8.710809E+01  1.797508E+02  2.101063E+02  2.504903E+02  2.508345E+02
-  2.508345E+02  5.493672E+02  5.493672E+02  5.645943E+02  5.645943E+02
-  5.673117E+02  6.090368E+02  6.824286E+02

[...]

  Phonon at Gamma, with non-analyticity in the
  direction (cartesian coordinates)  0.00000  0.00000  1.00000
 Phonon energies in Hartree :
  -1.116659E-03 -2.510459E-04 -2.510459E-04  2.057443E-05  3.968936E-04
   3.968936E-04  8.190048E-04  8.190048E-04  1.141315E-03  1.142886E-03
   1.142886E-03  2.503101E-03  2.503101E-03  2.572481E-03  2.572481E-03
   2.584862E-03  2.782597E-03  3.109374E-03
 Phonon frequencies in cm-1    :
- -2.450783E+02 -5.509821E+01 -5.509821E+01  4.515565E+00  8.710809E+01
-  8.710809E+01  1.797508E+02  1.797508E+02  2.504896E+02  2.508345E+02
-  2.508345E+02  5.493672E+02  5.493672E+02  5.645943E+02  5.645943E+02
-  5.673117E+02  6.107094E+02  6.824286E+02

== END DATASET(S) ==============================================================

 -outvars: echo values of variables after computation  --------
            acell      6.7821676613E+00  6.7821676613E+00  9.5914334888E+00 Bohr
              amu      1.78490000E+02  1.59994000E+01
         berryopt1          0
         berryopt2         -2
         berryopt3          0
          chkprim           0
             ecut      2.50000000E+01 Hartree
           ecutsm      5.00000000E-01 Hartree
           etotal1    -1.7931036182E+02
           etotal3     1.6391008441E+00
            fcart1     0.0000000000E+00  0.0000000000E+00  0.0000000000E+00
                       0.0000000000E+00  0.0000000000E+00  0.0000000000E+00
                       0.0000000000E+00  0.0000000000E+00  1.7369255163E-05
                       0.0000000000E+00  0.0000000000E+00 -1.7369255163E-05
                       0.0000000000E+00  0.0000000000E+00  1.7369255163E-05
                       0.0000000000E+00  0.0000000000E+00 -1.7369255163E-05
            fcart3     0.0000000000E+00  0.0000000000E+00  0.0000000000E+00
                       0.0000000000E+00  0.0000000000E+00  0.0000000000E+00
                       0.0000000000E+00  0.0000000000E+00  0.0000000000E+00
                       0.0000000000E+00  0.0000000000E+00  0.0000000000E+00
                       0.0000000000E+00  0.0000000000E+00  0.0000000000E+00
                       0.0000000000E+00  0.0000000000E+00  0.0000000000E+00
-          fftalg         512
           getddk1          0
           getddk2          0
           getddk3          2
           getden1          0
           getden2          1
           getden3          0
           getwfk1          0
           getwfk2          1
           getwfk3          2
             iscf1          7
             iscf2         -2
             iscf3          7
           istwfk1       2    0    0    3    0    0    0    0    0    0
                         0    0    0    0    0    0    0    0    6    0
                         0    7    0    0    0    0    0    0    0    0
                         0    0    0    0    0    0    0    0    0    0
                         0    0    0    0    0    0    0    0    0    0
           istwfk2       1    0    0    1    0    0    0    0    0    0
                         0    0    0    0    0    0    0    0    1    0
                         0    1    0    0    0    0    0    0    0    0
                         0    0    0    0    0    0    0    0    0    0
                         0    0    0    0    0    0    0    0    0    0
           istwfk3       1    0    0    1    0    0    0    0    0    0
                         0    0    0    0    0    0    0    0    1    0
                         0    1    0    0    0    0    0    0    0    0
                         0    0    0    0    0    0    0    0    0    0
                         0    0    0    0    0    0    0    0    0    0
                       outvar_i_n : Printing only first  50 k-points.
              ixc          11
           jdtset        1    2    3
              kpt      0.00000000E+00  0.00000000E+00  0.00000000E+00
                       1.66666667E-01  0.00000000E+00  0.00000000E+00
                       3.33333333E-01  0.00000000E+00  0.00000000E+00
                       5.00000000E-01  0.00000000E+00  0.00000000E+00
                      -3.33333333E-01  0.00000000E+00  0.00000000E+00
                      -1.66666667E-01  0.00000000E+00  0.00000000E+00
                       0.00000000E+00  1.66666667E-01  0.00000000E+00
                       1.66666667E-01  1.66666667E-01  0.00000000E+00
                       3.33333333E-01  1.66666667E-01  0.00000000E+00
                       5.00000000E-01  1.66666667E-01  0.00000000E+00
                      -3.33333333E-01  1.66666667E-01  0.00000000E+00
                      -1.66666667E-01  1.66666667E-01  0.00000000E+00
                       0.00000000E+00  3.33333333E-01  0.00000000E+00
                       1.66666667E-01  3.33333333E-01  0.00000000E+00
                       3.33333333E-01  3.33333333E-01  0.00000000E+00
                       5.00000000E-01  3.33333333E-01  0.00000000E+00
                      -3.33333333E-01  3.33333333E-01  0.00000000E+00
                      -1.66666667E-01  3.33333333E-01  0.00000000E+00
                       0.00000000E+00  5.00000000E-01  0.00000000E+00
                       1.66666667E-01  5.00000000E-01  0.00000000E+00
                       3.33333333E-01  5.00000000E-01  0.00000000E+00
                       5.00000000E-01  5.00000000E-01  0.00000000E+00
                      -3.33333333E-01  5.00000000E-01  0.00000000E+00
                      -1.66666667E-01  5.00000000E-01  0.00000000E+00
                       0.00000000E+00 -3.33333333E-01  0.00000000E+00
                       1.66666667E-01 -3.33333333E-01  0.00000000E+00
                       3.33333333E-01 -3.33333333E-01  0.00000000E+00
                       5.00000000E-01 -3.33333333E-01  0.00000000E+00
                      -3.33333333E-01 -3.33333333E-01  0.00000000E+00
                      -1.66666667E-01 -3.33333333E-01  0.00000000E+00
                       0.00000000E+00 -1.66666667E-01  0.00000000E+00
                       1.66666667E-01 -1.66666667E-01  0.00000000E+00
                       3.33333333E-01 -1.66666667E-01  0.00000000E+00
                       5.00000000E-01 -1.66666667E-01  0.00000000E+00
                      -3.33333333E-01 -1.66666667E-01  0.00000000E+00
                      -1.66666667E-01 -1.66666667E-01  0.00000000E+00
                       0.00000000E+00  0.00000000E+00  1.25000000E-01
                       1.66666667E-01  0.00000000E+00  1.25000000E-01
                       3.33333333E-01  0.00000000E+00  1.25000000E-01
                       5.00000000E-01  0.00000000E+00  1.25000000E-01
                      -3.33333333E-01  0.00000000E+00  1.25000000E-01
                      -1.66666667E-01  0.00000000E+00  1.25000000E-01
                       0.00000000E+00  1.66666667E-01  1.25000000E-01
                       1.66666667E-01  1.66666667E-01  1.25000000E-01
                       3.33333333E-01  1.66666667E-01  1.25000000E-01
                       5.00000000E-01  1.66666667E-01  1.25000000E-01
                      -3.33333333E-01  1.66666667E-01  1.25000000E-01
                      -1.66666667E-01  1.66666667E-01  1.25000000E-01
                       0.00000000E+00  3.33333333E-01  1.25000000E-01
                       1.66666667E-01  3.33333333E-01  1.25000000E-01
                       outvar_i_n : Printing only first  50 k-points.
           kptopt           3
         kptrlatt        6    0    0      0    6    0      0    0    8
          kptrlen      4.06930013E+01
P           mkmem          16
P          mkqmem          16
P          mk1mem          16
            natom           6
            nband          24
           nbdbuf1          0
           nbdbuf2          2
           nbdbuf3          0
           ndtset           3
            ngfft          32      32      45
             nkpt         288
             nqpt1          0
             nqpt2          0
             nqpt3          1
            nstep1        100
            nstep2         30
            nstep3        100
             nsym          16
           ntypat           2
              occ      2.000000  2.000000  2.000000  2.000000  2.000000  2.000000
                       2.000000  2.000000  2.000000  2.000000  2.000000  2.000000
                       2.000000  2.000000  2.000000  2.000000  2.000000  2.000000
                       2.000000  2.000000  2.000000  2.000000  2.000000  2.000000
        optdriver1          0
        optdriver2          0
        optdriver3          1
        pawecutdg      3.00000000E+01 Hartree
         pawxcdev           0
           prtden1          1
           prtden2          0
           prtden3          0
           prteig           0
            prtwf1          1
            prtwf2          1
            prtwf3          0
          rfatpol1          1       1
          rfatpol2          1       1
          rfatpol3          1       6
            rfdir1          0       0       0
            rfdir2          1       1       1
            rfdir3          1       1       1
           rfelfd1          0
           rfelfd2          0
           rfelfd3          3
           rfphon1          0
           rfphon2          0
           rfphon3          1
           rfstrs1          0
           rfstrs2          0
           rfstrs3          3
            rprim      7.0710670000E-01  7.0710670000E-01  0.0000000000E+00
                      -7.0710670000E-01  7.0710670000E-01  0.0000000000E+00
                       0.0000000000E+00  0.0000000000E+00  1.0000000000E+00
           strten1    -9.9256256497E-05 -9.9256256497E-05 -1.2133848328E-04
                       0.0000000000E+00  0.0000000000E+00  0.0000000000E+00
           strten3     0.0000000000E+00  0.0000000000E+00  0.0000000000E+00
                       0.0000000000E+00  0.0000000000E+00  0.0000000000E+00
        symmorphi           0
           symrel      1  0  0   0  1  0   0  0  1      -1  0  0   0 -1  0   0  0 -1
                      -1  0  0   0  1  0   0  0 -1       1  0  0   0 -1  0   0  0  1
                      -1  0  0   0 -1  0   0  0  1       1  0  0   0  1  0   0  0 -1
                       1  0  0   0 -1  0   0  0 -1      -1  0  0   0  1  0   0  0  1
                       0  1  0   1  0  0   0  0  1       0 -1  0  -1  0  0   0  0 -1
                       0 -1  0   1  0  0   0  0 -1       0  1  0  -1  0  0   0  0  1
                       0 -1  0  -1  0  0   0  0  1       0  1  0   1  0  0   0  0 -1
                       0  1  0  -1  0  0   0  0 -1       0 -1  0   1  0  0   0  0  1
           toldfe1     1.00000000E-13 Hartree
           toldfe2     0.00000000E+00 Hartree
           toldfe3     0.00000000E+00 Hartree
           tolvrs1     0.00000000E+00
           tolvrs2     0.00000000E+00
           tolvrs3     1.00000000E-13
           tolwfr1     0.00000000E+00
           tolwfr2     1.00000000E-22
           tolwfr3     0.00000000E+00
            typat      1  1  2  2  2  2
              wtk        0.00347    0.00347    0.00347    0.00347    0.00347    0.00347
                         0.00347    0.00347    0.00347    0.00347    0.00347    0.00347
                         0.00347    0.00347    0.00347    0.00347    0.00347    0.00347
                         0.00347    0.00347    0.00347    0.00347    0.00347    0.00347
                         0.00347    0.00347    0.00347    0.00347    0.00347    0.00347
                         0.00347    0.00347    0.00347    0.00347    0.00347    0.00347
                         0.00347    0.00347    0.00347    0.00347    0.00347    0.00347
                         0.00347    0.00347    0.00347    0.00347    0.00347    0.00347
                         0.00347    0.00347
                       outvars : Printing only first  50 k-points.
           xangst      0.0000000000E+00  0.0000000000E+00  0.0000000000E+00
                       0.0000000000E+00  2.5377837086E+00  2.5377840000E+00
                       1.2688918543E+00  1.2688918543E+00  1.2688920000E+00
                       1.2688918543E+00  1.2688918543E+00  3.8066760000E+00
                      -1.2688918543E+00  1.2688918543E+00  1.2688920000E+00
                      -1.2688918543E+00  1.2688918543E+00  3.8066760000E+00
            xcart      0.0000000000E+00  0.0000000000E+00  0.0000000000E+00
                       0.0000000000E+00  4.7957161938E+00  4.7957167444E+00
                       2.3978580969E+00  2.3978580969E+00  2.3978583722E+00
                       2.3978580969E+00  2.3978580969E+00  7.1935751166E+00
                      -2.3978580969E+00  2.3978580969E+00  2.3978583722E+00
                      -2.3978580969E+00  2.3978580969E+00  7.1935751166E+00
             xred      0.0000000000E+00  0.0000000000E+00  0.0000000000E+00
                       5.0000000000E-01  5.0000000000E-01  5.0000000000E-01
                       5.0000000000E-01  0.0000000000E+00  2.5000000000E-01
                       5.0000000000E-01  0.0000000000E+00  7.5000000000E-01
                       0.0000000000E+00  5.0000000000E-01  2.5000000000E-01
                       0.0000000000E+00  5.0000000000E-01  7.5000000000E-01
            znucl       72.00000    8.00000

- Timing analysis has been suppressed with timopt=0

 Suggested references for the acknowledgment of ABINIT usage.

 Calculation completed.
.Delivered   0 WARNINGs and   0 COMMENTs to log file.