.Version 9.4.2 of ABINIT

 ABINIT is a project of the Universite Catholique de Louvain,
 Corning Inc. and other collaborators, see ~abinit/doc/developers/contributors.txt .
 acknowledgments of the ABINIT effort.

.Starting date : Sun 30 May 2021.
- ( at 21h13 )

- input  file    -> /workspace/jiahaoz/HZO/LG_Model/GroundP/HfZrO4/WaveVector/process/LGD_another/Gamma/primitiveGa
- output file    -> /workspace/jiahaoz/HZO/LG_Model/GroundP/HfZrO4/WaveVector/process/LGD_another/Gamma/primitiveGa.abo
- root for input  files -> i
- root for output files -> o

 DATASET    1 : space group P4/m m m (#123); Bravais tP (primitive tetrag.)
     intxc =       0    ionmov =       0      iscf =       7    lmnmax =       8
     lnmax =       8     mgfft =      45  mpssoang =       4    mqgrid =    3001
     natom =       6  nloc_mem =       1    nspden =       1   nspinor =       1
    nsppol =       1      nsym =      16    n1xccc =    2501    ntypat =       3
    occopt =       1   xclevel =       2
-    mband =          24        mffmem =           1         mkmem =           8
       mpw =        2638          nfft =       46080          nkpt =         144
  Rough estimation (10% accuracy) of disk space for files :

 DATASET    2 : space group P4/m m m (#123); Bravais tP (primitive tetrag.)
     intxc =       0    ionmov =       0      iscf =      -2    lmnmax =       8
     lnmax =       8     mgfft =      45  mpssoang =       4    mqgrid =    3001
     natom =       6  nloc_mem =       1    nspden =       1   nspinor =       1
    nsppol =       1      nsym =      16    n1xccc =    2501    ntypat =       3
    occopt =       1   xclevel =       2
-    mband =          24        mffmem =           1         mkmem =           8
       mpw =        2638          nfft =       46080          nkpt =         144
  Rough estimation (10% accuracy) of disk space for files :

 DATASET    3 : space group P4/m m m (#123); Bravais tP (primitive tetrag.)
     intxc =       0      iscf =       7    lmnmax =       8     lnmax =       8
     mgfft =      45  mpssoang =       4    mqgrid =    3001     natom =       6
  nloc_mem =       1    nspden =       1   nspinor =       1    nsppol =       1
      nsym =      16    n1xccc =    2501    ntypat =       3    occopt =       1
   xclevel =       2
-    mband =          24        mffmem =           1         mkmem =           8
-   mkqmem =           8        mk1mem =           8           mpw =        2638
      nfft =       46080          nkpt =         144
  Rough estimation (10% accuracy) of disk space for files :

------------- Echo of variables that govern the present computation ------------
-
- outvars: echo of selected default values
-   iomode0 =  3 , fftalg0 =512 , wfoptalg0 =  0
-
- outvars: echo of global parameters not present in the input file
-  max_nthreads =    0
-
 -outvars: echo values of preprocessed input variables --------
            acell      6.7784476387E+00  6.7784476387E+00  9.5867885420E+00 Bohr
              amu      1.78490000E+02  9.12240000E+01  1.59994000E+01
         berryopt1          0
         berryopt2         -2
         berryopt3          0
             ecut      2.50000000E+01 Hartree
           ecutsm      5.00000000E-01 Hartree
-          fftalg         512
           getddk1          0
           getddk2          0
           getddk3          2
           getden1          0
           getden2          1
           getden3          0
           getwfk1          0
           getwfk2          1
           getwfk3          2
             iscf1          7
             iscf2         -2
             iscf3          7
              ixc          11
           jdtset        1    2    3
              kpt      8.33333333E-02  8.33333333E-02  1.25000000E-01
                       2.50000000E-01  8.33333333E-02  1.25000000E-01
                       4.16666667E-01  8.33333333E-02  1.25000000E-01
                      -4.16666667E-01  8.33333333E-02  1.25000000E-01
                      -2.50000000E-01  8.33333333E-02  1.25000000E-01
                      -8.33333333E-02  8.33333333E-02  1.25000000E-01
                       8.33333333E-02  2.50000000E-01  1.25000000E-01
                       2.50000000E-01  2.50000000E-01  1.25000000E-01
                       4.16666667E-01  2.50000000E-01  1.25000000E-01
                      -4.16666667E-01  2.50000000E-01  1.25000000E-01
                      -2.50000000E-01  2.50000000E-01  1.25000000E-01
                      -8.33333333E-02  2.50000000E-01  1.25000000E-01
                       8.33333333E-02  4.16666667E-01  1.25000000E-01
                       2.50000000E-01  4.16666667E-01  1.25000000E-01
                       4.16666667E-01  4.16666667E-01  1.25000000E-01
                      -4.16666667E-01  4.16666667E-01  1.25000000E-01
                      -2.50000000E-01  4.16666667E-01  1.25000000E-01
                      -8.33333333E-02  4.16666667E-01  1.25000000E-01
                       8.33333333E-02 -4.16666667E-01  1.25000000E-01
                       2.50000000E-01 -4.16666667E-01  1.25000000E-01
                       4.16666667E-01 -4.16666667E-01  1.25000000E-01
                      -4.16666667E-01 -4.16666667E-01  1.25000000E-01
                      -2.50000000E-01 -4.16666667E-01  1.25000000E-01
                      -8.33333333E-02 -4.16666667E-01  1.25000000E-01
                       8.33333333E-02 -2.50000000E-01  1.25000000E-01
                       2.50000000E-01 -2.50000000E-01  1.25000000E-01
                       4.16666667E-01 -2.50000000E-01  1.25000000E-01
                      -4.16666667E-01 -2.50000000E-01  1.25000000E-01
                      -2.50000000E-01 -2.50000000E-01  1.25000000E-01
                      -8.33333333E-02 -2.50000000E-01  1.25000000E-01
                       8.33333333E-02 -8.33333333E-02  1.25000000E-01
                       2.50000000E-01 -8.33333333E-02  1.25000000E-01
                       4.16666667E-01 -8.33333333E-02  1.25000000E-01
                      -4.16666667E-01 -8.33333333E-02  1.25000000E-01
                      -2.50000000E-01 -8.33333333E-02  1.25000000E-01
                      -8.33333333E-02 -8.33333333E-02  1.25000000E-01
                       8.33333333E-02  8.33333333E-02  3.75000000E-01
                       2.50000000E-01  8.33333333E-02  3.75000000E-01
                       4.16666667E-01  8.33333333E-02  3.75000000E-01
                      -4.16666667E-01  8.33333333E-02  3.75000000E-01
                      -2.50000000E-01  8.33333333E-02  3.75000000E-01
                      -8.33333333E-02  8.33333333E-02  3.75000000E-01
                       8.33333333E-02  2.50000000E-01  3.75000000E-01
                       2.50000000E-01  2.50000000E-01  3.75000000E-01
                       4.16666667E-01  2.50000000E-01  3.75000000E-01
                      -4.16666667E-01  2.50000000E-01  3.75000000E-01
                      -2.50000000E-01  2.50000000E-01  3.75000000E-01
                      -8.33333333E-02  2.50000000E-01  3.75000000E-01
                       8.33333333E-02  4.16666667E-01  3.75000000E-01
                       2.50000000E-01  4.16666667E-01  3.75000000E-01
                       outvar_i_n : Printing only first  50 k-points.
           kptopt           3
         kptrlatt        6    0    0      0    6    0      0    0    4
          kptrlen      3.83471542E+01
P           mkmem           8
P          mkqmem           8
P          mk1mem           8
            natom           6
            nband          24
           nbdbuf1          0
           nbdbuf2          2
           nbdbuf3          0
           ndtset           3
            ngfft          32      32      45
             nkpt         144
             nqpt1          0
             nqpt2          0
             nqpt3          1
            nstep1        100
            nstep2         30
            nstep3        100
             nsym          16
           ntypat           3
              occ      2.000000  2.000000  2.000000  2.000000  2.000000  2.000000
                       2.000000  2.000000  2.000000  2.000000  2.000000  2.000000
                       2.000000  2.000000  2.000000  2.000000  2.000000  2.000000
                       2.000000  2.000000  2.000000  2.000000  2.000000  2.000000
        optdriver1          0
        optdriver2          0
        optdriver3          1
        pawecutdg      3.00000000E+01 Hartree
         pawxcdev           0
          rfatpol1          1       1
          rfatpol2          1       1
          rfatpol3          1       6
            rfdir1          0       0       0
            rfdir2          1       1       1
            rfdir3          1       1       1
           rfelfd1          0
           rfelfd2          0
           rfelfd3          3
           rfphon1          0
           rfphon2          0
           rfphon3          1
           rfstrs1          0
           rfstrs2          0
           rfstrs3          3
            rprim      7.0710670000E-01  7.0710670000E-01  0.0000000000E+00
                      -7.0710670000E-01  7.0710670000E-01  0.0000000000E+00
                       0.0000000000E+00  0.0000000000E+00  1.0000000000E+00
           shiftk      5.00000000E-01  5.00000000E-01  5.00000000E-01
          spgroup         123
        symmorphi           0
           symrel      1  0  0   0  1  0   0  0  1      -1  0  0   0 -1  0   0  0 -1
                      -1  0  0   0  1  0   0  0 -1       1  0  0   0 -1  0   0  0  1
                      -1  0  0   0 -1  0   0  0  1       1  0  0   0  1  0   0  0 -1
                       1  0  0   0 -1  0   0  0 -1      -1  0  0   0  1  0   0  0  1
                       0  1  0   1  0  0   0  0  1       0 -1  0  -1  0  0   0  0 -1
                       0 -1  0   1  0  0   0  0 -1       0  1  0  -1  0  0   0  0  1
                       0 -1  0  -1  0  0   0  0  1       0  1  0   1  0  0   0  0 -1
                       0  1  0  -1  0  0   0  0 -1       0 -1  0   1  0  0   0  0  1
           toldfe1     1.00000000E-13 Hartree
           toldfe2     0.00000000E+00 Hartree
           toldfe3     0.00000000E+00 Hartree
           tolvrs1     0.00000000E+00
           tolvrs2     0.00000000E+00
           tolvrs3     1.00000000E-13
           tolwfr1     0.00000000E+00
           tolwfr2     1.00000000E-22
           tolwfr3     0.00000000E+00
            typat      1  2  3  3  3  3
              wtk        0.00694    0.00694    0.00694    0.00694    0.00694    0.00694
                         0.00694    0.00694    0.00694    0.00694    0.00694    0.00694
                         0.00694    0.00694    0.00694    0.00694    0.00694    0.00694
                         0.00694    0.00694    0.00694    0.00694    0.00694    0.00694
                         0.00694    0.00694    0.00694    0.00694    0.00694    0.00694
                         0.00694    0.00694    0.00694    0.00694    0.00694    0.00694
                         0.00694    0.00694    0.00694    0.00694    0.00694    0.00694
                         0.00694    0.00694    0.00694    0.00694    0.00694    0.00694
[...]
   1    1   3    1        -0.0000000000         0.0000000000
   1    1   1    2        -0.1054370339         0.0000000000
   1    1   2    2        -0.0000000000         0.0000000000
   1    1   3    2        -0.0000000000         0.0000000000
   1    1   1    3        -0.4947943825         0.0000000000
   1    1   2    3         0.0000000000        -0.0000000000
   1    1   3    3        -0.0000000000         0.0000000000
   1    1   1    4        -0.4947943825        -0.0000000000
   1    1   2    4         0.0000000000         0.0000000000
   1    1   3    4         0.0000000000        -0.0000000000
   1    1   1    5        -0.5535231668        -0.0000000000
   1    1   2    5         0.0000000000         0.0000000000
   1    1   3    5         0.0000000000        -0.0000000000
   1    1   1    6        -0.5535231668         0.0000000000
   1    1   2    6         0.0000000000        -0.0000000000
   1    1   3    6        -0.0000000000         0.0000000000
   1    1   1    8       -41.0866060242         0.0000000000
   1    1   2    8         0.0000000000         0.0000000000
   1    1   3    8         0.0000000000         0.0000000000
   1    1   1    9        -0.0000000000         0.0000000000
   1    1   2    9        -0.0000000000         0.0000000000
   1    1   3    9         0.0000000000         0.0000000000
   1    1   1   10        -0.0000000000         0.0000000000
   1    1   2   10        -0.0000000000         0.0000000000
   1    1   3   10        -0.0000000000         0.0000000000

[...]

  Dynamical matrix, in cartesian coordinates,
   if specified in the inputs, asr has been imposed
     j1       j2             matrix element
  dir pert dir pert     real part    imaginary part

[...]

  Dielectric tensor, in cartesian coordinates,
     j1       j2             matrix element
  dir pert dir pert     real part    imaginary part

[...]

  Effective charges, in cartesian coordinates,
  (from electric field response)
   if specified in the inputs, asr has been imposed
     j1       j2             matrix element
  dir pert dir pert     real part    imaginary part

[...]

  Effective charges, in cartesian coordinates,
  (from phonon response)
   if specified in the inputs, asr has been imposed
     j1       j2             matrix element
  dir pert dir pert     real part    imaginary part

[...]

  Rigid-atom elastic tensor , in cartesian coordinates,
     j1       j2             matrix element
  dir pert dir pert     real part    imaginary part

[...]

  Internal strain coupling parameters, in cartesian coordinates,
   zero average net force deriv. has been imposed
     j1       j2             matrix element
  dir pert dir pert     real part    imaginary part

[...]

  Rigid-atom proper piezoelectric tensor, in cartesian coordinates,
  (from strain response)
     j1       j2             matrix element
  dir pert dir pert     real part    imaginary part

[...]

   3    8   1    9         0.0000000000         0.0000000000
   3    8   2    9         0.0000000000         0.0000000000
   3    8   3    9         0.0000000000         0.0000000000
   3    8   1   10         0.0000000000         0.0000000000
   3    8   2   10         0.0000000000         0.0000000000
   3    8   3   10         0.0000000000         0.0000000000

  Phonon wavevector (reduced coordinates) :  0.00000  0.00000  0.00000
 Phonon energies in Hartree :
  -1.064444E-03 -2.805828E-04 -2.805828E-04  4.729597E-05  4.621714E-04
   4.621714E-04  9.076664E-04  9.076664E-04  9.794892E-04  1.180762E-03
   1.180762E-03  1.427189E-03  2.505225E-03  2.505225E-03  2.574713E-03
   2.574713E-03  2.586384E-03  3.105995E-03
 Phonon frequencies in cm-1    :
- -2.336185E+02 -6.158080E+01 -6.158080E+01  1.038026E+01  1.014349E+02
-  1.014349E+02  1.992097E+02  1.992097E+02  2.149730E+02  2.591472E+02
-  2.591472E+02  3.132317E+02  5.498333E+02  5.498333E+02  5.650841E+02
-  5.650841E+02  5.676456E+02  6.816870E+02

  Phonon at Gamma, with non-analyticity in the
  direction (cartesian coordinates)  1.00000  0.00000  0.00000
 Phonon energies in Hartree :
  -1.064444E-03 -2.805828E-04 -2.516449E-04  4.729597E-05  4.621714E-04
   4.696543E-04  9.076664E-04  9.794892E-04  1.180762E-03  1.180762E-03
   1.427189E-03  2.498918E-03  2.505225E-03  2.574713E-03  2.574713E-03
   2.586384E-03  2.895833E-03  3.105995E-03
 Phonon frequencies in cm-1    :
- -2.336185E+02 -6.158080E+01 -5.522967E+01  1.038026E+01  1.014349E+02
-  1.030772E+02  1.992097E+02  2.149730E+02  2.591472E+02  2.591472E+02
-  3.132317E+02  5.484491E+02  5.498333E+02  5.650841E+02  5.650841E+02
-  5.676456E+02  6.355619E+02  6.816870E+02

[...]

  Phonon at Gamma, with non-analyticity in the
  direction (cartesian coordinates)  0.00000  0.00000  1.00000
 Phonon energies in Hartree :
  -1.064444E-03 -2.805828E-04 -2.805828E-04  4.729869E-05  4.621714E-04
   4.621714E-04  9.076664E-04  9.076664E-04  1.180762E-03  1.180762E-03
   1.372055E-03  2.505225E-03  2.505225E-03  2.574713E-03  2.574713E-03
   2.586384E-03  2.941166E-03  3.105995E-03
 Phonon frequencies in cm-1    :
- -2.336185E+02 -6.158080E+01 -6.158080E+01  1.038086E+01  1.014349E+02
-  1.014349E+02  1.992097E+02  1.992097E+02  2.591472E+02  2.591472E+02
-  3.011314E+02  5.498333E+02  5.498333E+02  5.650841E+02  5.650841E+02
-  5.676456E+02  6.455112E+02  6.816870E+02

== END DATASET(S) ==============================================================

 -outvars: echo values of variables after computation  --------
            acell      6.7784476387E+00  6.7784476387E+00  9.5867885420E+00 Bohr
              amu      1.78490000E+02  9.12240000E+01  1.59994000E+01
         berryopt1          0
         berryopt2         -2
         berryopt3          0
             ecut      2.50000000E+01 Hartree
           ecutsm      5.00000000E-01 Hartree
           etotal1    -1.7351268592E+02
           etotal3     4.9520107114E-01
            fcart1     0.0000000000E+00  0.0000000000E+00  1.4456028966E-19
                       0.0000000000E+00  0.0000000000E+00  1.4456028966E-19
                       0.0000000000E+00  0.0000000000E+00 -3.5439747686E-03
                       0.0000000000E+00  0.0000000000E+00  3.5439747686E-03
                       0.0000000000E+00  0.0000000000E+00 -3.5439747686E-03
                       0.0000000000E+00  0.0000000000E+00  3.5439747686E-03
            fcart3     0.0000000000E+00  0.0000000000E+00  0.0000000000E+00
                       0.0000000000E+00  0.0000000000E+00  0.0000000000E+00
                       0.0000000000E+00  0.0000000000E+00  0.0000000000E+00
                       0.0000000000E+00  0.0000000000E+00  0.0000000000E+00
                       0.0000000000E+00  0.0000000000E+00  0.0000000000E+00
                       0.0000000000E+00  0.0000000000E+00  0.0000000000E+00
-          fftalg         512
           getddk1          0
           getddk2          0
           getddk3          2
           getden1          0
           getden2          1
           getden3          0
           getwfk1          0
           getwfk2          1
           getwfk3          2
             iscf1          7
             iscf2         -2
             iscf3          7
              ixc          11
           jdtset        1    2    3
              kpt      8.33333333E-02  8.33333333E-02  1.25000000E-01
                       2.50000000E-01  8.33333333E-02  1.25000000E-01
                       4.16666667E-01  8.33333333E-02  1.25000000E-01
                      -4.16666667E-01  8.33333333E-02  1.25000000E-01
                      -2.50000000E-01  8.33333333E-02  1.25000000E-01
                      -8.33333333E-02  8.33333333E-02  1.25000000E-01
                       8.33333333E-02  2.50000000E-01  1.25000000E-01
                       2.50000000E-01  2.50000000E-01  1.25000000E-01
                       4.16666667E-01  2.50000000E-01  1.25000000E-01
                      -4.16666667E-01  2.50000000E-01  1.25000000E-01
                      -2.50000000E-01  2.50000000E-01  1.25000000E-01
                      -8.33333333E-02  2.50000000E-01  1.25000000E-01
                       8.33333333E-02  4.16666667E-01  1.25000000E-01
                       2.50000000E-01  4.16666667E-01  1.25000000E-01
                       4.16666667E-01  4.16666667E-01  1.25000000E-01
                      -4.16666667E-01  4.16666667E-01  1.25000000E-01
                      -2.50000000E-01  4.16666667E-01  1.25000000E-01
                      -8.33333333E-02  4.16666667E-01  1.25000000E-01
                       8.33333333E-02 -4.16666667E-01  1.25000000E-01
                       2.50000000E-01 -4.16666667E-01  1.25000000E-01
                       4.16666667E-01 -4.16666667E-01  1.25000000E-01
                      -4.16666667E-01 -4.16666667E-01  1.25000000E-01
                      -2.50000000E-01 -4.16666667E-01  1.25000000E-01
                      -8.33333333E-02 -4.16666667E-01  1.25000000E-01
                       8.33333333E-02 -2.50000000E-01  1.25000000E-01
                       2.50000000E-01 -2.50000000E-01  1.25000000E-01
                       4.16666667E-01 -2.50000000E-01  1.25000000E-01
                      -4.16666667E-01 -2.50000000E-01  1.25000000E-01
                      -2.50000000E-01 -2.50000000E-01  1.25000000E-01
                      -8.33333333E-02 -2.50000000E-01  1.25000000E-01
                       8.33333333E-02 -8.33333333E-02  1.25000000E-01
                       2.50000000E-01 -8.33333333E-02  1.25000000E-01
                       4.16666667E-01 -8.33333333E-02  1.25000000E-01
                      -4.16666667E-01 -8.33333333E-02  1.25000000E-01
                      -2.50000000E-01 -8.33333333E-02  1.25000000E-01
                      -8.33333333E-02 -8.33333333E-02  1.25000000E-01
                       8.33333333E-02  8.33333333E-02  3.75000000E-01
                       2.50000000E-01  8.33333333E-02  3.75000000E-01
                       4.16666667E-01  8.33333333E-02  3.75000000E-01
                      -4.16666667E-01  8.33333333E-02  3.75000000E-01
                      -2.50000000E-01  8.33333333E-02  3.75000000E-01
                      -8.33333333E-02  8.33333333E-02  3.75000000E-01
                       8.33333333E-02  2.50000000E-01  3.75000000E-01
                       2.50000000E-01  2.50000000E-01  3.75000000E-01
                       4.16666667E-01  2.50000000E-01  3.75000000E-01
                      -4.16666667E-01  2.50000000E-01  3.75000000E-01
                      -2.50000000E-01  2.50000000E-01  3.75000000E-01
                      -8.33333333E-02  2.50000000E-01  3.75000000E-01
                       8.33333333E-02  4.16666667E-01  3.75000000E-01
                       2.50000000E-01  4.16666667E-01  3.75000000E-01
                       outvar_i_n : Printing only first  50 k-points.
           kptopt           3
         kptrlatt        6    0    0      0    6    0      0    0    4
          kptrlen      3.83471542E+01
P           mkmem           8
P          mkqmem           8
P          mk1mem           8
            natom           6
            nband          24
           nbdbuf1          0
           nbdbuf2          2
           nbdbuf3          0
           ndtset           3
            ngfft          32      32      45
             nkpt         144
             nqpt1          0
             nqpt2          0
             nqpt3          1
            nstep1        100
            nstep2         30
            nstep3        100
             nsym          16
           ntypat           3
              occ      2.000000  2.000000  2.000000  2.000000  2.000000  2.000000
                       2.000000  2.000000  2.000000  2.000000  2.000000  2.000000
                       2.000000  2.000000  2.000000  2.000000  2.000000  2.000000
                       2.000000  2.000000  2.000000  2.000000  2.000000  2.000000
        optdriver1          0
        optdriver2          0
        optdriver3          1
        pawecutdg      3.00000000E+01 Hartree
         pawxcdev           0
          rfatpol1          1       1
          rfatpol2          1       1
          rfatpol3          1       6
            rfdir1          0       0       0
            rfdir2          1       1       1
            rfdir3          1       1       1
           rfelfd1          0
           rfelfd2          0
           rfelfd3          3
           rfphon1          0
           rfphon2          0
           rfphon3          1
           rfstrs1          0
           rfstrs2          0
           rfstrs3          3
            rprim      7.0710670000E-01  7.0710670000E-01  0.0000000000E+00
                      -7.0710670000E-01  7.0710670000E-01  0.0000000000E+00
                       0.0000000000E+00  0.0000000000E+00  1.0000000000E+00
           shiftk      5.00000000E-01  5.00000000E-01  5.00000000E-01
          spgroup         123
           strten1    -1.9212882222E-04 -1.9212882222E-04 -1.4750080467E-04
                       0.0000000000E+00  0.0000000000E+00  0.0000000000E+00
           strten3     0.0000000000E+00  0.0000000000E+00  0.0000000000E+00
                       0.0000000000E+00  0.0000000000E+00  0.0000000000E+00
        symmorphi           0
           symrel      1  0  0   0  1  0   0  0  1      -1  0  0   0 -1  0   0  0 -1
                      -1  0  0   0  1  0   0  0 -1       1  0  0   0 -1  0   0  0  1
                      -1  0  0   0 -1  0   0  0  1       1  0  0   0  1  0   0  0 -1
                       1  0  0   0 -1  0   0  0 -1      -1  0  0   0  1  0   0  0  1
                       0  1  0   1  0  0   0  0  1       0 -1  0  -1  0  0   0  0 -1
                       0 -1  0   1  0  0   0  0 -1       0  1  0  -1  0  0   0  0  1
                       0 -1  0  -1  0  0   0  0  1       0  1  0   1  0  0   0  0 -1
                       0  1  0  -1  0  0   0  0 -1       0 -1  0   1  0  0   0  0  1
           toldfe1     1.00000000E-13 Hartree
           toldfe2     0.00000000E+00 Hartree
           toldfe3     0.00000000E+00 Hartree
           tolvrs1     0.00000000E+00
           tolvrs2     0.00000000E+00
           tolvrs3     1.00000000E-13
           tolwfr1     0.00000000E+00
           tolwfr2     1.00000000E-22
           tolwfr3     0.00000000E+00
            typat      1  2  3  3  3  3
              wtk        0.00694    0.00694    0.00694    0.00694    0.00694    0.00694
                         0.00694    0.00694    0.00694    0.00694    0.00694    0.00694
                         0.00694    0.00694    0.00694    0.00694    0.00694    0.00694
                         0.00694    0.00694    0.00694    0.00694    0.00694    0.00694
                         0.00694    0.00694    0.00694    0.00694    0.00694    0.00694
                         0.00694    0.00694    0.00694    0.00694    0.00694    0.00694
                         0.00694    0.00694    0.00694    0.00694    0.00694    0.00694
                         0.00694    0.00694    0.00694    0.00694    0.00694    0.00694
                         0.00694    0.00694
                       outvars : Printing only first  50 k-points.
           xangst      0.0000000000E+00  0.0000000000E+00  0.0000000000E+00
                       0.0000000000E+00  2.5363917329E+00  2.5365550000E+00
                       1.2681958664E+00  1.2681958664E+00  1.2682775000E+00
                       1.2681958664E+00  1.2681958664E+00  3.8048325000E+00
                      -1.2681958664E+00  1.2681958664E+00  1.2682775000E+00
                      -1.2681958664E+00  1.2681958664E+00  3.8048325000E+00
            xcart      0.0000000000E+00  0.0000000000E+00  0.0000000000E+00
                       0.0000000000E+00  4.7930857409E+00  4.7933942710E+00
                       2.3965428704E+00  2.3965428704E+00  2.3966971355E+00
                       2.3965428704E+00  2.3965428704E+00  7.1900914065E+00
                      -2.3965428704E+00  2.3965428704E+00  2.3966971355E+00
                      -2.3965428704E+00  2.3965428704E+00  7.1900914065E+00
             xred      0.0000000000E+00  0.0000000000E+00  0.0000000000E+00
                       5.0000000000E-01  5.0000000000E-01  5.0000000000E-01
                       5.0000000000E-01  0.0000000000E+00  2.5000000000E-01
                       5.0000000000E-01  0.0000000000E+00  7.5000000000E-01
                       0.0000000000E+00  5.0000000000E-01  2.5000000000E-01
                       0.0000000000E+00  5.0000000000E-01  7.5000000000E-01
            znucl       72.00000   40.00000    8.00000

- Timing analysis has been suppressed with timopt=0

 Suggested references for the acknowledgment of ABINIT usage.

 Calculation completed.
.Delivered   0 WARNINGs and   0 COMMENTs to log file.