.Version 9.4.2 of ABINIT

 ABINIT is a project of the Universite Catholique de Louvain,
 Corning Inc. and other collaborators, see ~abinit/doc/developers/contributors.txt .
 acknowledgments of the ABINIT effort.

.Starting date : Sun 30 May 2021.
- ( at 22h06 )

- input  file    -> /workspace/jiahaoz/HZO/LG_Model/GroundP/HfZrO4/WaveVector/process/LGD_another/M/primitiveM
- output file    -> /workspace/jiahaoz/HZO/LG_Model/GroundP/HfZrO4/WaveVector/process/LGD_another/M/primitiveM.abo
- root for input  files -> i
- root for output files -> o

 DATASET    1 : space group P4/m m m (#123); Bravais tP (primitive tetrag.)
     intxc =       0    ionmov =       0      iscf =       7    lmnmax =       8
     lnmax =       8     mgfft =      45  mpssoang =       4    mqgrid =    3001
     natom =       6  nloc_mem =       1    nspden =       1   nspinor =       1
    nsppol =       1      nsym =      16    n1xccc =    2501    ntypat =       3
    occopt =       1   xclevel =       2
-    mband =          24        mffmem =           1         mkmem =           8
       mpw =        2638          nfft =       46080          nkpt =         144
  Rough estimation (10% accuracy) of disk space for files :

 DATASET    2 : space group P4/m m m (#123); Bravais tP (primitive tetrag.)
     intxc =       0      iscf =       7    lmnmax =       8     lnmax =       8
     mgfft =      45  mpssoang =       4    mqgrid =    3001     natom =       6
  nloc_mem =       1    nspden =       1   nspinor =       1    nsppol =       1
      nsym =      16    n1xccc =    2501    ntypat =       3    occopt =       1
   xclevel =       2
-    mband =          24        mffmem =           1         mkmem =           8
-   mkqmem =           8        mk1mem =           8           mpw =        2638
      nfft =       46080          nkpt =         144
  Rough estimation (10% accuracy) of disk space for files :

------------- Echo of variables that govern the present computation ------------
-
- outvars: echo of selected default values
-   iomode0 =  3 , fftalg0 =512 , wfoptalg0 =  0
-
- outvars: echo of global parameters not present in the input file
-  max_nthreads =    0
-
 -outvars: echo values of preprocessed input variables --------
            acell      6.7784476387E+00  6.7784476387E+00  9.5867885420E+00 Bohr
              amu      1.78490000E+02  9.12240000E+01  1.59994000E+01
             ecut      2.50000000E+01 Hartree
           ecutsm      5.00000000E-01 Hartree
-          fftalg         512
           getwfk1          0
           getwfk2          1
              ixc          11
           jdtset        1    2
              kpt      8.33333333E-02  8.33333333E-02  1.25000000E-01
                       2.50000000E-01  8.33333333E-02  1.25000000E-01
                       4.16666667E-01  8.33333333E-02  1.25000000E-01
                      -4.16666667E-01  8.33333333E-02  1.25000000E-01
                      -2.50000000E-01  8.33333333E-02  1.25000000E-01
                      -8.33333333E-02  8.33333333E-02  1.25000000E-01
                       8.33333333E-02  2.50000000E-01  1.25000000E-01
                       2.50000000E-01  2.50000000E-01  1.25000000E-01
                       4.16666667E-01  2.50000000E-01  1.25000000E-01
                      -4.16666667E-01  2.50000000E-01  1.25000000E-01
                      -2.50000000E-01  2.50000000E-01  1.25000000E-01
                      -8.33333333E-02  2.50000000E-01  1.25000000E-01
                       8.33333333E-02  4.16666667E-01  1.25000000E-01
                       2.50000000E-01  4.16666667E-01  1.25000000E-01
                       4.16666667E-01  4.16666667E-01  1.25000000E-01
                      -4.16666667E-01  4.16666667E-01  1.25000000E-01
                      -2.50000000E-01  4.16666667E-01  1.25000000E-01
                      -8.33333333E-02  4.16666667E-01  1.25000000E-01
                       8.33333333E-02 -4.16666667E-01  1.25000000E-01
                       2.50000000E-01 -4.16666667E-01  1.25000000E-01
                       4.16666667E-01 -4.16666667E-01  1.25000000E-01
                      -4.16666667E-01 -4.16666667E-01  1.25000000E-01
                      -2.50000000E-01 -4.16666667E-01  1.25000000E-01
                      -8.33333333E-02 -4.16666667E-01  1.25000000E-01
                       8.33333333E-02 -2.50000000E-01  1.25000000E-01
                       2.50000000E-01 -2.50000000E-01  1.25000000E-01
                       4.16666667E-01 -2.50000000E-01  1.25000000E-01
                      -4.16666667E-01 -2.50000000E-01  1.25000000E-01
                      -2.50000000E-01 -2.50000000E-01  1.25000000E-01
                      -8.33333333E-02 -2.50000000E-01  1.25000000E-01
                       8.33333333E-02 -8.33333333E-02  1.25000000E-01
                       2.50000000E-01 -8.33333333E-02  1.25000000E-01
                       4.16666667E-01 -8.33333333E-02  1.25000000E-01
                      -4.16666667E-01 -8.33333333E-02  1.25000000E-01
                      -2.50000000E-01 -8.33333333E-02  1.25000000E-01
                      -8.33333333E-02 -8.33333333E-02  1.25000000E-01
                       8.33333333E-02  8.33333333E-02  3.75000000E-01
                       2.50000000E-01  8.33333333E-02  3.75000000E-01
                       4.16666667E-01  8.33333333E-02  3.75000000E-01
                      -4.16666667E-01  8.33333333E-02  3.75000000E-01
                      -2.50000000E-01  8.33333333E-02  3.75000000E-01
                      -8.33333333E-02  8.33333333E-02  3.75000000E-01
                       8.33333333E-02  2.50000000E-01  3.75000000E-01
                       2.50000000E-01  2.50000000E-01  3.75000000E-01
                       4.16666667E-01  2.50000000E-01  3.75000000E-01
                      -4.16666667E-01  2.50000000E-01  3.75000000E-01
                      -2.50000000E-01  2.50000000E-01  3.75000000E-01
                      -8.33333333E-02  2.50000000E-01  3.75000000E-01
                       8.33333333E-02  4.16666667E-01  3.75000000E-01
                       2.50000000E-01  4.16666667E-01  3.75000000E-01
                       outvar_i_n : Printing only first  50 k-points.
           kptopt           3
         kptrlatt        6    0    0      0    6    0      0    0    4
          kptrlen      3.83471542E+01
P           mkmem           8
P          mkqmem           8
P          mk1mem           8
            natom           6
            nband          24
           ndtset           2
            ngfft          32      32      45
             nkpt         144
             nqpt1          0
             nqpt2          1
            nstep         100
             nsym          16
           ntypat           3
              occ      2.000000  2.000000  2.000000  2.000000  2.000000  2.000000
                       2.000000  2.000000  2.000000  2.000000  2.000000  2.000000
                       2.000000  2.000000  2.000000  2.000000  2.000000  2.000000
                       2.000000  2.000000  2.000000  2.000000  2.000000  2.000000
        optdriver1          0
        optdriver2          1
        pawecutdg      3.00000000E+01 Hartree
         pawxcdev           0
              qpt1     0.00000000E+00  0.00000000E+00  0.00000000E+00
              qpt2     5.00000000E-01  5.00000000E-01  0.00000000E+00
          rfatpol1          1       1
          rfatpol2          1       6
            rfdir1          0       0       0
            rfdir2          1       1       1
           rfphon1          0
           rfphon2          1
            rprim      7.0710670000E-01  7.0710670000E-01  0.0000000000E+00
                      -7.0710670000E-01  7.0710670000E-01  0.0000000000E+00
                       0.0000000000E+00  0.0000000000E+00  1.0000000000E+00
           shiftk      5.00000000E-01  5.00000000E-01  5.00000000E-01
          spgroup         123
        symmorphi           0
           symrel      1  0  0   0  1  0   0  0  1      -1  0  0   0 -1  0   0  0 -1
                      -1  0  0   0  1  0   0  0 -1       1  0  0   0 -1  0   0  0  1
                      -1  0  0   0 -1  0   0  0  1       1  0  0   0  1  0   0  0 -1
                       1  0  0   0 -1  0   0  0 -1      -1  0  0   0  1  0   0  0  1
                       0  1  0   1  0  0   0  0  1       0 -1  0  -1  0  0   0  0 -1
                       0 -1  0   1  0  0   0  0 -1       0  1  0  -1  0  0   0  0  1
                       0 -1  0  -1  0  0   0  0  1       0  1  0   1  0  0   0  0 -1
                       0  1  0  -1  0  0   0  0 -1       0 -1  0   1  0  0   0  0  1
           toldfe1     1.00000000E-13 Hartree
           toldfe2     0.00000000E+00 Hartree
           tolvrs1     0.00000000E+00
           tolvrs2     1.00000000E-13
            typat      1  2  3  3  3  3
              wtk        0.00694    0.00694    0.00694    0.00694    0.00694    0.00694
                         0.00694    0.00694    0.00694    0.00694    0.00694    0.00694
                         0.00694    0.00694    0.00694    0.00694    0.00694    0.00694
                         0.00694    0.00694    0.00694    0.00694    0.00694    0.00694
                         0.00694    0.00694    0.00694    0.00694    0.00694    0.00694
                         0.00694    0.00694    0.00694    0.00694    0.00694    0.00694
                         0.00694    0.00694    0.00694    0.00694    0.00694    0.00694
                         0.00694    0.00694    0.00694    0.00694    0.00694    0.00694
                         0.00694    0.00694
                       outvars : Printing only first  50 k-points.
           xangst      0.0000000000E+00  0.0000000000E+00  0.0000000000E+00
                       0.0000000000E+00  2.5363917329E+00  2.5365550000E+00
                       1.2681958664E+00  1.2681958664E+00  1.2682775000E+00
                       1.2681958664E+00  1.2681958664E+00  3.8048325000E+00
                      -1.2681958664E+00  1.2681958664E+00  1.2682775000E+00
                      -1.2681958664E+00  1.2681958664E+00  3.8048325000E+00
            xcart      0.0000000000E+00  0.0000000000E+00  0.0000000000E+00
                       0.0000000000E+00  4.7930857409E+00  4.7933942710E+00
                       2.3965428704E+00  2.3965428704E+00  2.3966971355E+00
                       2.3965428704E+00  2.3965428704E+00  7.1900914065E+00
                      -2.3965428704E+00  2.3965428704E+00  2.3966971355E+00
                      -2.3965428704E+00  2.3965428704E+00  7.1900914065E+00
             xred      0.0000000000E+00  0.0000000000E+00  0.0000000000E+00
                       5.0000000000E-01  5.0000000000E-01  5.0000000000E-01
                       5.0000000000E-01  0.0000000000E+00  2.5000000000E-01
                       5.0000000000E-01  0.0000000000E+00  7.5000000000E-01
                       0.0000000000E+00  5.0000000000E-01  2.5000000000E-01
                       0.0000000000E+00  5.0000000000E-01  7.5000000000E-01
            znucl       72.00000   40.00000    8.00000

 chkinp: Checking input parameters for consistency, jdtset=   1.

 chkinp: Checking input parameters for consistency, jdtset=   2.
[...]
 The set of symmetries contains only one element for this perturbation.
 symkpt : not enough symmetry to change the number of k points.

-inwffil : will read wavefunctions from disk file o_DS1_WFK.nc

-inwffil : will read wavefunctions from disk file o_DS1_WFK.nc
 Initialisation of the first-order wave-functions :
  ireadwf=   0

--- !BeginCycle
iteration_state: {dtset: 2, }
solver: {iscf: 7, nstep: 100, nline: 4, wfoptalg: 0, }
tolerances: {tolvrs: 1.00E-13, }
...

     iter   2DEtotal(Ha)        deltaE(Ha) residm    vres2
-ETOT  1   20.207103529253     -5.032E+03 2.714E+00 7.485E+03
 ETOT  2   10.931267353724     -9.276E+00 2.176E-01 1.829E+02
 ETOT  3   10.665258423175     -2.660E-01 5.484E-03 4.967E+01
 ETOT  4   10.645099239868     -2.016E-02 3.057E-04 1.586E+01
 ETOT  5   10.631111188743     -1.399E-02 5.991E-05 2.860E+00
 ETOT  6   10.629211887031     -1.899E-03 3.121E-06 1.006E-01
 ETOT  7   10.629167911427     -4.398E-05 7.184E-07 6.965E-03
 ETOT  8   10.629163748740     -4.163E-06 6.098E-08 2.079E-03
 ETOT  9   10.629162161877     -1.587E-06 6.921E-09 1.102E-04
 ETOT 10   10.629162080649     -8.123E-08 2.094E-09 1.003E-06
 ETOT 11   10.629162079699     -9.495E-10 3.941E-11 2.428E-07
 ETOT 12   10.629162079540     -1.592E-10 8.856E-12 4.336E-08
 ETOT 13   10.629162079497     -4.275E-11 5.861E-13 6.732E-10
 ETOT 14   10.629162079520      2.274E-11 1.032E-13 2.719E-10
 ETOT 15   10.629162079504     -1.637E-11 8.010E-15 4.865E-12
 ETOT 16   10.629162079520      1.637E-11 1.859E-15 4.971E-13
 ETOT 17   10.629162079519     -9.095E-13 9.588E-17 9.757E-15

 At SCF step   17       vres2   =  9.76E-15 < tolvrs=  1.00E-13 =>converged.

 ----iterations are completed or convergence reached----

 Mean square residual over all n,k,spin=   56.424E-20; max=  95.884E-18

 Thirteen components of 2nd-order total energy (hartree) are
 1,2,3: 0th-order hamiltonian combined with 1st-order wavefunctions
     kin0=   5.95212765E+03 eigvalue=  -2.29919738E+02  local=  -2.02129953E+03
 4,5,6: 1st-order hamiltonian combined with 1st and 0th-order wfs
 loc psp =  -3.21482599E+03  Hartree=   9.27297826E+02     xc=  -2.33380984E+02
 note that "loc psp" includes a xc core correction that could be resolved
 7,8,9: eventually, occupation + non-local contributions
    edocc=   0.00000000E+00     enl0=   6.46804056E+02   enl1=  -6.86843256E+03
 1-9 gives the relaxation energy (to be shifted if some occ is /=2.0)
   erelax=  -5.04162927E+03
 10,11,12 Non-relaxation  contributions : frozen-wavefunctions and Ewald
 fr.local=   1.43855979E+03 fr.nonlo=   3.44264242E+03  Ewald=   2.19151076E+02
 13,14 Frozen wf xc core corrections (1) and (2)
 frxc 1  =  -2.11894605E+02  frxc 2 =   1.63799754E+02
 Resulting in :
 2DEtotal=    0.1062916208E+02 Ha. Also 2DEtotal=    0.289234209456E+03 eV
    (2DErelax=   -5.0416292750E+03 Ha. 2DEnonrelax=    5.0522584370E+03 Ha)
    (  non-var. 2DEtotal :    1.0629162091E+01 Ha)

 ---- first-order wavefunction calculations are completed ----

 ==> Compute Derivative Database <==

  2nd-order matrix (non-cartesian coordinates, masses not included,
   asr not included )
     j1       j2             matrix element
  dir pert dir pert     real part     imaginary part

   1    1   1    1        10.5645041973         0.0000000000
   1    1   2    1         0.0000000000         0.0000000000
   1    1   3    1         0.0000000000         0.0000000000
   1    1   1    2         0.0000000000         0.0000000000
   1    1   2    2        -8.5811984931        -0.0000000000
   1    1   3    2         0.0000000000         0.0000000000
   1    1   1    3         0.0000000000         0.0000000000
   1    1   2    3        -0.0000000000         0.0000000000
   1    1   3    3         0.1617895777        -0.0000000000
   1    1   1    4         0.0000000000         0.0000000000
   1    1   2    4        -0.0000000000         0.0000000000
   1    1   3    4        -0.1617895777         0.0000000000
   1    1   1    5         0.0000000000        -0.0000000000
   1    1   2    5        -0.0000000000        -0.0000000000
   1    1   3    5        -0.0000000000         0.0000000000
   1    1   1    6         0.0000000000        -0.0000000000
   1    1   2    6         0.0000000000        -0.0000000000
   1    1   3    6         0.0000000000         0.0000000000

[...]

  Dynamical matrix, in cartesian coordinates,
   if specified in the inputs, asr has been imposed
     j1       j2             matrix element
  dir pert dir pert     real part    imaginary part

[...]

   3    6   1    1         0.0017604846         0.0000000000
   3    6   2    1        -0.0017604846        -0.0000000000
   3    6   3    1         0.0000000000        -0.0000000000
   3    6   1    2         0.0034576542         0.0000000000
   3    6   2    2         0.0034576542         0.0000000000
   3    6   3    2         0.0000000000         0.0000000000
   3    6   1    3        -0.0000000000         0.0000000000
   3    6   2    3        -0.0000000000         0.0000000000
   3    6   3    3         0.0000000000         0.0000000000
   3    6   1    4         0.0000000000         0.0000000000
   3    6   2    4         0.0000000000         0.0000000000
   3    6   3    4         0.0000000000         0.0000000000
   3    6   1    5        -0.0000000000         0.0000000000
   3    6   2    5        -0.0000000000         0.0000000000
   3    6   3    5        -0.0672270853         0.0000000000
   3    6   1    6         0.0000000000        -0.0000000000
   3    6   2    6        -0.0000000000         0.0000000000
   3    6   3    6         0.1156518898         0.0000000000

  Phonon wavevector (reduced coordinates) :  0.50000  0.50000  0.00000
 Phonon energies in Hartree :
  -1.445189E-03 -1.342132E-03  3.968584E-04  4.501361E-04  4.501361E-04
   5.709529E-04  8.788286E-04  1.019174E-03  1.288552E-03  1.288552E-03
   1.408319E-03  1.408319E-03  2.382155E-03  2.420925E-03  2.504604E-03
   2.504604E-03  3.000990E-03  3.032045E-03
 Phonon frequencies in cm-1    :
- -3.171823E+02 -2.945640E+02  8.710034E+01  9.879344E+01  9.879344E+01
-  1.253097E+02  1.928806E+02  2.236828E+02  2.828045E+02  2.828045E+02
-  3.090902E+02  3.090902E+02  5.228226E+02  5.313315E+02  5.496970E+02
-  5.496970E+02  6.586412E+02  6.654569E+02

== END DATASET(S) ==============================================================

 -outvars: echo values of variables after computation  --------
            acell      6.7784476387E+00  6.7784476387E+00  9.5867885420E+00 Bohr
              amu      1.78490000E+02  9.12240000E+01  1.59994000E+01
             ecut      2.50000000E+01 Hartree
           ecutsm      5.00000000E-01 Hartree
           etotal1    -1.7351268592E+02
           etotal2     1.0629162080E+01
            fcart1     0.0000000000E+00  0.0000000000E+00  1.4456028966E-19
                       0.0000000000E+00  0.0000000000E+00  1.4456028966E-19
                       0.0000000000E+00  0.0000000000E+00 -3.5439747686E-03
                       0.0000000000E+00  0.0000000000E+00  3.5439747686E-03
                       0.0000000000E+00  0.0000000000E+00 -3.5439747686E-03
                       0.0000000000E+00  0.0000000000E+00  3.5439747686E-03
            fcart2     0.0000000000E+00  0.0000000000E+00  0.0000000000E+00
                       0.0000000000E+00  0.0000000000E+00  0.0000000000E+00
                       0.0000000000E+00  0.0000000000E+00  0.0000000000E+00
                       0.0000000000E+00  0.0000000000E+00  0.0000000000E+00
                       0.0000000000E+00  0.0000000000E+00  0.0000000000E+00
                       0.0000000000E+00  0.0000000000E+00  0.0000000000E+00
-          fftalg         512
           getwfk1          0
           getwfk2          1
              ixc          11
           jdtset        1    2
              kpt      8.33333333E-02  8.33333333E-02  1.25000000E-01
                       2.50000000E-01  8.33333333E-02  1.25000000E-01
                       4.16666667E-01  8.33333333E-02  1.25000000E-01
                      -4.16666667E-01  8.33333333E-02  1.25000000E-01
                      -2.50000000E-01  8.33333333E-02  1.25000000E-01
                      -8.33333333E-02  8.33333333E-02  1.25000000E-01
                       8.33333333E-02  2.50000000E-01  1.25000000E-01
                       2.50000000E-01  2.50000000E-01  1.25000000E-01
                       4.16666667E-01  2.50000000E-01  1.25000000E-01
                      -4.16666667E-01  2.50000000E-01  1.25000000E-01
                      -2.50000000E-01  2.50000000E-01  1.25000000E-01
                      -8.33333333E-02  2.50000000E-01  1.25000000E-01
                       8.33333333E-02  4.16666667E-01  1.25000000E-01
                       2.50000000E-01  4.16666667E-01  1.25000000E-01
                       4.16666667E-01  4.16666667E-01  1.25000000E-01
                      -4.16666667E-01  4.16666667E-01  1.25000000E-01
                      -2.50000000E-01  4.16666667E-01  1.25000000E-01
                      -8.33333333E-02  4.16666667E-01  1.25000000E-01
                       8.33333333E-02 -4.16666667E-01  1.25000000E-01
                       2.50000000E-01 -4.16666667E-01  1.25000000E-01
                       4.16666667E-01 -4.16666667E-01  1.25000000E-01
                      -4.16666667E-01 -4.16666667E-01  1.25000000E-01
                      -2.50000000E-01 -4.16666667E-01  1.25000000E-01
                      -8.33333333E-02 -4.16666667E-01  1.25000000E-01
                       8.33333333E-02 -2.50000000E-01  1.25000000E-01
                       2.50000000E-01 -2.50000000E-01  1.25000000E-01
                       4.16666667E-01 -2.50000000E-01  1.25000000E-01
                      -4.16666667E-01 -2.50000000E-01  1.25000000E-01
                      -2.50000000E-01 -2.50000000E-01  1.25000000E-01
                      -8.33333333E-02 -2.50000000E-01  1.25000000E-01
                       8.33333333E-02 -8.33333333E-02  1.25000000E-01
                       2.50000000E-01 -8.33333333E-02  1.25000000E-01
                       4.16666667E-01 -8.33333333E-02  1.25000000E-01
                      -4.16666667E-01 -8.33333333E-02  1.25000000E-01
                      -2.50000000E-01 -8.33333333E-02  1.25000000E-01
                      -8.33333333E-02 -8.33333333E-02  1.25000000E-01
                       8.33333333E-02  8.33333333E-02  3.75000000E-01
                       2.50000000E-01  8.33333333E-02  3.75000000E-01
                       4.16666667E-01  8.33333333E-02  3.75000000E-01
                      -4.16666667E-01  8.33333333E-02  3.75000000E-01
                      -2.50000000E-01  8.33333333E-02  3.75000000E-01
                      -8.33333333E-02  8.33333333E-02  3.75000000E-01
                       8.33333333E-02  2.50000000E-01  3.75000000E-01
                       2.50000000E-01  2.50000000E-01  3.75000000E-01
                       4.16666667E-01  2.50000000E-01  3.75000000E-01
                      -4.16666667E-01  2.50000000E-01  3.75000000E-01
                      -2.50000000E-01  2.50000000E-01  3.75000000E-01
                      -8.33333333E-02  2.50000000E-01  3.75000000E-01
                       8.33333333E-02  4.16666667E-01  3.75000000E-01
                       2.50000000E-01  4.16666667E-01  3.75000000E-01
                       outvar_i_n : Printing only first  50 k-points.
           kptopt           3
         kptrlatt        6    0    0      0    6    0      0    0    4
          kptrlen      3.83471542E+01
P           mkmem           8
P          mkqmem           8
P          mk1mem           8
            natom           6
            nband          24
           ndtset           2
            ngfft          32      32      45
             nkpt         144
             nqpt1          0
             nqpt2          1
            nstep         100
             nsym          16
           ntypat           3
              occ      2.000000  2.000000  2.000000  2.000000  2.000000  2.000000
                       2.000000  2.000000  2.000000  2.000000  2.000000  2.000000
                       2.000000  2.000000  2.000000  2.000000  2.000000  2.000000
                       2.000000  2.000000  2.000000  2.000000  2.000000  2.000000
        optdriver1          0
        optdriver2          1
        pawecutdg      3.00000000E+01 Hartree
         pawxcdev           0
              qpt1     0.00000000E+00  0.00000000E+00  0.00000000E+00
              qpt2     5.00000000E-01  5.00000000E-01  0.00000000E+00
          rfatpol1          1       1
          rfatpol2          1       6
            rfdir1          0       0       0
            rfdir2          1       1       1
           rfphon1          0
           rfphon2          1
            rprim      7.0710670000E-01  7.0710670000E-01  0.0000000000E+00
                      -7.0710670000E-01  7.0710670000E-01  0.0000000000E+00
                       0.0000000000E+00  0.0000000000E+00  1.0000000000E+00
           shiftk      5.00000000E-01  5.00000000E-01  5.00000000E-01
          spgroup         123
           strten1    -1.9212882222E-04 -1.9212882222E-04 -1.4750080467E-04
                       0.0000000000E+00  0.0000000000E+00  0.0000000000E+00
           strten2     0.0000000000E+00  0.0000000000E+00  0.0000000000E+00
                       0.0000000000E+00  0.0000000000E+00  0.0000000000E+00
        symmorphi           0
           symrel      1  0  0   0  1  0   0  0  1      -1  0  0   0 -1  0   0  0 -1
                      -1  0  0   0  1  0   0  0 -1       1  0  0   0 -1  0   0  0  1
                      -1  0  0   0 -1  0   0  0  1       1  0  0   0  1  0   0  0 -1
                       1  0  0   0 -1  0   0  0 -1      -1  0  0   0  1  0   0  0  1
                       0  1  0   1  0  0   0  0  1       0 -1  0  -1  0  0   0  0 -1
                       0 -1  0   1  0  0   0  0 -1       0  1  0  -1  0  0   0  0  1
                       0 -1  0  -1  0  0   0  0  1       0  1  0   1  0  0   0  0 -1
                       0  1  0  -1  0  0   0  0 -1       0 -1  0   1  0  0   0  0  1
           toldfe1     1.00000000E-13 Hartree
           toldfe2     0.00000000E+00 Hartree
           tolvrs1     0.00000000E+00
           tolvrs2     1.00000000E-13
            typat      1  2  3  3  3  3
              wtk        0.00694    0.00694    0.00694    0.00694    0.00694    0.00694
                         0.00694    0.00694    0.00694    0.00694    0.00694    0.00694
                         0.00694    0.00694    0.00694    0.00694    0.00694    0.00694
                         0.00694    0.00694    0.00694    0.00694    0.00694    0.00694
                         0.00694    0.00694    0.00694    0.00694    0.00694    0.00694
                         0.00694    0.00694    0.00694    0.00694    0.00694    0.00694
                         0.00694    0.00694    0.00694    0.00694    0.00694    0.00694
                         0.00694    0.00694    0.00694    0.00694    0.00694    0.00694
                         0.00694    0.00694
                       outvars : Printing only first  50 k-points.
           xangst      0.0000000000E+00  0.0000000000E+00  0.0000000000E+00
                       0.0000000000E+00  2.5363917329E+00  2.5365550000E+00
                       1.2681958664E+00  1.2681958664E+00  1.2682775000E+00
                       1.2681958664E+00  1.2681958664E+00  3.8048325000E+00
                      -1.2681958664E+00  1.2681958664E+00  1.2682775000E+00
                      -1.2681958664E+00  1.2681958664E+00  3.8048325000E+00
            xcart      0.0000000000E+00  0.0000000000E+00  0.0000000000E+00
                       0.0000000000E+00  4.7930857409E+00  4.7933942710E+00
                       2.3965428704E+00  2.3965428704E+00  2.3966971355E+00
                       2.3965428704E+00  2.3965428704E+00  7.1900914065E+00
                      -2.3965428704E+00  2.3965428704E+00  2.3966971355E+00
                      -2.3965428704E+00  2.3965428704E+00  7.1900914065E+00
             xred      0.0000000000E+00  0.0000000000E+00  0.0000000000E+00
                       5.0000000000E-01  5.0000000000E-01  5.0000000000E-01
                       5.0000000000E-01  0.0000000000E+00  2.5000000000E-01
                       5.0000000000E-01  0.0000000000E+00  7.5000000000E-01
                       0.0000000000E+00  5.0000000000E-01  2.5000000000E-01
                       0.0000000000E+00  5.0000000000E-01  7.5000000000E-01
            znucl       72.00000   40.00000    8.00000

- Timing analysis has been suppressed with timopt=0

 Suggested references for the acknowledgment of ABINIT usage.

 Calculation completed.
.Delivered   0 WARNINGs and   0 COMMENTs to log file.