.Version 9.4.1 of ABINIT

 ABINIT is a project of the Universite Catholique de Louvain,
 Corning Inc. and other collaborators, see ~abinit/doc/developers/contributors.txt .
 acknowledgments of the ABINIT effort.

.Starting date : Sat  3 Jul 2021.
- ( at 07h50 )

 === Build Information ===
  Version       : 9.4.1
  Build target  : x86_64_linux_intel19.0
  Build date    : 20210409

 === Optimizations ===
  Debug level        : basic
  Optimization level : standard
  Architecture       : intel_xeon

 === Multicore ===
  Parallel build : yes
  Parallel I/O   :
  openMP support :
  GPU support    :

 === Connectors / Fallbacks ===
  LINALG flavor  : mkl
  FFT flavor     : dfti
  HDF5           : yes
  NetCDF         : yes
  NetCDF Fortran : yes
  Wannier90      : no

 === Experimental features ===
  Exports             :
  GW double-precision :

 Default optimizations:
   --- None ---

 CPP options activated during the build:

                  CC_INTEL                   CXX_GNU                  FC_INTEL

                 HAVE_DFTI HAVE_FC_ALLOCATABLE_DT...             HAVE_FC_ASYNC

  HAVE_FC_COMMAND_ARGUMENT      HAVE_FC_COMMAND_LINE        HAVE_FC_CONTIGUOUS

           HAVE_FC_CPUTIME             HAVE_FC_ETIME              HAVE_FC_EXIT

             HAVE_FC_FLUSH             HAVE_FC_GAMMA            HAVE_FC_GETENV

            HAVE_FC_GETPID   HAVE_FC_IEEE_ARITHMETIC   HAVE_FC_IEEE_EXCEPTIONS

             HAVE_FC_IOMSG     HAVE_FC_ISO_C_BINDING  HAVE_FC_ISO_FORTRAN_2008

        HAVE_FC_LONG_LINES        HAVE_FC_MOVE_ALLOC  HAVE_FC_ON_THE_FLY_SHAPE

           HAVE_FC_PRIVATE         HAVE_FC_PROTECTED           HAVE_FC_SHIFTLR

         HAVE_FC_STREAM_IO            HAVE_FC_SYSTEM                 HAVE_HDF5

             HAVE_HDF5_MPI        HAVE_LIBPAW_ABINIT      HAVE_LIBTETRA_ABINIT

         HAVE_LINALG_GEMMT  HAVE_LINALG_MKL_IMATCOPY   HAVE_LINALG_MKL_OMATADD

                  HAVE_MPI                 HAVE_MPI2       HAVE_MPI_IALLGATHER

       HAVE_MPI_IALLREDUCE        HAVE_MPI_IALLTOALL       HAVE_MPI_IALLTOALLV

           HAVE_MPI_IBCAST         HAVE_MPI_IGATHERV        HAVE_MPI_INTEGER16

               HAVE_MPI_IO HAVE_MPI_TYPE_CREATE_S...               HAVE_NETCDF

       HAVE_NETCDF_DEFAULT       HAVE_NETCDF_FORTRAN   HAVE_NETCDF_FORTRAN_MPI

           HAVE_NETCDF_MPI             HAVE_OS_LINUX         HAVE_TIMER_ABINIT

- input  file    -> PATH13
- output file    -> PATH13.abo
- root for input  files -> i
- root for output files -> o

ABI_PSPDIR  found in environment, with value /workspace/jiahaoz/PACKAGE_INSTALL/abinit-9.4.1
-instrng: 75 lines of input have been read from file PATH13

 For atom type 1, psp file is /workspace/jiahaoz/PACKAGE_INSTALL/abinit-9.4.1/pbe_s_sr/Hf.psp8
 For atom type 2, psp file is /workspace/jiahaoz/PACKAGE_INSTALL/abinit-9.4.1/pbe_s_sr/O.psp8
  read the values zionpsp= 12.0 , pspcod=   8 , lmax=   3
  read the values zionpsp=  6.0 , pspcod=   8 , lmax=   2

 inpspheads: deduce mpsang = 4, n1xccc = 2501.

 invars1m : enter jdtset= 0

 symlatt: the Bravais lattice is cP (primitive cubic)
  xred   is defined in input file
 ingeo: takes atomic coordinates from input array xred

--- !COMMENT
src_file: m_ingeo.F90
src_line: 900
message: |
    The tolerance on symmetries =   1.000E-05 is bigger than 1.0e-8.
    In order to avoid spurious effects, the atomic coordinates have been
    symmetrized before storing them in the dataset internal variable.
    So, do not be surprised by the fact that your input variables (xcart, xred, ...)
    do not correspond exactly to the ones echoed by ABINIT, the latter being used to do the calculations.
    This is not a problem per se.
    Still, in order to avoid this symmetrization (e.g. for specific debugging/development), decrease tolsym to 1.0e-8 or lower,
    or (much preferred) use input primitive vectors that are accurate to better than 1.0e-8.
    This message will only be printed once, even if there are other datasets where tolsym is bigger than 1.0e-8.
...

 symlatt: the Bravais lattice is cP (primitive cubic)

 symlatt: the Bravais lattice is cP (primitive cubic)

--- !COMMENT
src_file: m_symfind.F90
src_line: 1018
message: |
    The Bravais lattice determined only from the primitive
    vectors, bravais(1)=  7, is more symmetric
    than the real one, iholohedry=  1, obtained by taking into
    account the atomic positions. Start deforming the primitive vector set.
...

 symlatt: the Bravais lattice is mC (one-face-centered monoclinic)

--- !COMMENT
src_file: m_symfind.F90
src_line: 1027
message: |
    The Bravais lattice determined from modified primitive
    vectors, bravais(1)=  2, has a lower symmetry than before,
    but is still more symmetric than the real one, iholohedry=  1
    obtained by taking into account the atomic positions.
...

 symlatt: the Bravais lattice is aP (primitive triclinic)
 symspgr: spgroup=   1  P1   (=C1^1)
 invars2: take the default value of fband=  1.25000000E-01

--- !WARNING
src_file: m_mpinfo.F90
src_line: 2281
message: |
    nkpt*nsppol (112) is not a multiple of nproc_spkpt (36)
    The k-point parallelisation is inefficient. (Ignore this warning if this is not a GS run)
...

--- !WARNING
src_file: m_mpi_setup.F90
src_line: 707
message: |
    Your number of spins*k-points (=112) will not distribute correctly
    You will leave some empty.
    YOU ARE STRONGLY ADVICED TO ACTIVATE AUTOMATIC PARALLELIZATION!
    PUT "AUTOPARAL=1" IN THE INPUT FILE.
...

 For input ecut=  2.500000E+01 best grid ngfft=      45      45      45
       max ecut=  2.596259E+01

 ==== FFT mesh ====
  FFT mesh divisions ........................    45   45   45
  Augmented FFT divisions ...................    45   45   45
  FFT algorithm .............................   512
  FFT cache size ............................    16
 getmpw: optimal value of mpw= 5280

 Symmetries : space group P1 (#  1); Bravais aP (primitive triclinic)

 getdim_nloc : deduce lmnmax  =  32, lnmax  =   8,
                      lmnmaxso=  32, lnmaxso=   8.
     intxc =       0    ionmov =       0      iscf =       7    lmnmax =       8
     lnmax =       8     mgfft =      45  mpssoang =       4    mqgrid =    3001
     natom =      12  nloc_mem =       1    nspden =       1   nspinor =       1
    nsppol =       1      nsym =       1    n1xccc =    2501    ntypat =       2
    occopt =       1   xclevel =       2
-    mband =          50        mffmem =           1         mkmem =           4
       mpw =        5280          nfft =       91125          nkpt =         112
  Rough estimation (10% accuracy) of disk space for files :

 The job will continue.
------------- Echo of variables that govern the present computation ------------
-
- outvars: echo of selected default values
-   iomode0 =  3 , fftalg0 =512 , wfoptalg0 =  0
-
- outvars: echo of global parameters not present in the input file
-  max_nthreads =    0
-
 -outvars: echo values of preprocessed input variables --------

 These variables are accessible in NetCDF format (o_OUT.nc)

            acell      9.5914334888E+00  9.5914334888E+00  9.5914334888E+00 Bohr
              amu      1.78490000E+02  1.59994000E+01
          chkprim           0
             ecut      2.50000000E+01 Hartree
           ecutsm      5.00000000E-01 Hartree
-          fftalg         512
           istwfk        2    0    0    3    0    0    0    0    0    0
                         0    0    0    0    0    0    6    0    0    7
                         0    0    0    0    0    0    0    0    0    0
                         0    0    0    0    0    0    0    0    0    0
                         0    0    0    0    0    0    0    0    0    0
                       outvar_i_n : Printing only first  50 k-points.
              ixc          11
              kpt      0.00000000E+00  0.00000000E+00  0.00000000E+00
                       1.66666667E-01  0.00000000E+00  0.00000000E+00
                       3.33333333E-01  0.00000000E+00  0.00000000E+00
                       5.00000000E-01  0.00000000E+00  0.00000000E+00
                       0.00000000E+00  1.66666667E-01  0.00000000E+00
                       1.66666667E-01  1.66666667E-01  0.00000000E+00
                       3.33333333E-01  1.66666667E-01  0.00000000E+00
                       5.00000000E-01  1.66666667E-01  0.00000000E+00
                      -3.33333333E-01  1.66666667E-01  0.00000000E+00
                      -1.66666667E-01  1.66666667E-01  0.00000000E+00
                       0.00000000E+00  3.33333333E-01  0.00000000E+00
                       1.66666667E-01  3.33333333E-01  0.00000000E+00
                       3.33333333E-01  3.33333333E-01  0.00000000E+00
                       5.00000000E-01  3.33333333E-01  0.00000000E+00
                      -3.33333333E-01  3.33333333E-01  0.00000000E+00
                      -1.66666667E-01  3.33333333E-01  0.00000000E+00
                       0.00000000E+00  5.00000000E-01  0.00000000E+00
                       1.66666667E-01  5.00000000E-01  0.00000000E+00
                       3.33333333E-01  5.00000000E-01  0.00000000E+00
                       5.00000000E-01  5.00000000E-01  0.00000000E+00
                       0.00000000E+00  0.00000000E+00  1.66666667E-01
                       1.66666667E-01  0.00000000E+00  1.66666667E-01
                       3.33333333E-01  0.00000000E+00  1.66666667E-01
                       5.00000000E-01  0.00000000E+00  1.66666667E-01
                      -3.33333333E-01  0.00000000E+00  1.66666667E-01
                      -1.66666667E-01  0.00000000E+00  1.66666667E-01
                       0.00000000E+00  1.66666667E-01  1.66666667E-01
                       1.66666667E-01  1.66666667E-01  1.66666667E-01
                       3.33333333E-01  1.66666667E-01  1.66666667E-01
                       5.00000000E-01  1.66666667E-01  1.66666667E-01
                      -3.33333333E-01  1.66666667E-01  1.66666667E-01
                      -1.66666667E-01  1.66666667E-01  1.66666667E-01
                       0.00000000E+00  3.33333333E-01  1.66666667E-01
                       1.66666667E-01  3.33333333E-01  1.66666667E-01
                       3.33333333E-01  3.33333333E-01  1.66666667E-01
                       5.00000000E-01  3.33333333E-01  1.66666667E-01
                      -3.33333333E-01  3.33333333E-01  1.66666667E-01
                      -1.66666667E-01  3.33333333E-01  1.66666667E-01
                       0.00000000E+00  5.00000000E-01  1.66666667E-01
                       1.66666667E-01  5.00000000E-01  1.66666667E-01
                       3.33333333E-01  5.00000000E-01  1.66666667E-01
                       5.00000000E-01  5.00000000E-01  1.66666667E-01
                      -3.33333333E-01  5.00000000E-01  1.66666667E-01
                      -1.66666667E-01  5.00000000E-01  1.66666667E-01
                       0.00000000E+00 -3.33333333E-01  1.66666667E-01
                       1.66666667E-01 -3.33333333E-01  1.66666667E-01
                       3.33333333E-01 -3.33333333E-01  1.66666667E-01
                       5.00000000E-01 -3.33333333E-01  1.66666667E-01
[...]
   0.14961    0.15027    0.16717    0.16766    0.19203    0.19468    0.20528    0.20807
   0.21714    0.21791    0.22931    0.23031    0.24794    0.24904    0.27138    0.27214
   0.44933    0.45133
 kpt#  44, nband= 50, wtk=  0.00926, kpt= -0.1667  0.5000  0.1667 (reduced coord)
  -1.94164   -1.94090   -1.94084   -1.94019   -0.80218   -0.80148   -0.79956   -0.79897
  -0.79578   -0.79543   -0.79136   -0.79106   -0.79022   -0.78976   -0.78886   -0.78881
  -0.36397   -0.36352   -0.34225   -0.34184   -0.31980   -0.31970   -0.30620   -0.30603
   0.09140    0.09322    0.10958    0.11088    0.12331    0.12487    0.13237    0.13426
   0.14631    0.14718    0.16961    0.17067    0.18658    0.18754    0.21131    0.21234
   0.22383    0.22584    0.22860    0.23036    0.25693    0.25759    0.27120    0.27192
   0.45425    0.45637
 kpt#  45, nband= 50, wtk=  0.00926, kpt=  0.0000 -0.3333  0.1667 (reduced coord)
  -1.94167   -1.94095   -1.94077   -1.94017   -0.80295   -0.80194   -0.80147   -0.79726
  -0.79420   -0.79302   -0.79267   -0.79213   -0.79072   -0.79030   -0.78834   -0.78813
  -0.37955   -0.35119   -0.34284   -0.34000   -0.31993   -0.31447   -0.31007   -0.30436
   0.08184    0.08794    0.10017    0.10183    0.11580    0.12418    0.13262    0.13957
   0.14432    0.16425    0.16644    0.17869    0.19113    0.19632    0.20293    0.21723
   0.22401    0.22917    0.23015    0.23716    0.25392    0.26407    0.27033    0.27442
   0.45763    0.47213
 kpt#  46, nband= 50, wtk=  0.00926, kpt=  0.1667 -0.3333  0.1667 (reduced coord)
  -1.94166   -1.94095   -1.94077   -1.94018   -0.80312   -0.80229   -0.80147   -0.79663
  -0.79501   -0.79418   -0.79225   -0.79122   -0.79088   -0.79009   -0.78854   -0.78751
  -0.37730   -0.35182   -0.34344   -0.34040   -0.32017   -0.31735   -0.30850   -0.30375
   0.08257    0.09328    0.09961    0.10393    0.11718    0.12565    0.13265    0.14133
   0.14416    0.16135    0.16493    0.18117    0.19067    0.19686    0.20185    0.21697
   0.22352    0.22755    0.23226    0.23363    0.25093    0.25782    0.26947    0.27558
   0.45576    0.46356
 kpt#  47, nband= 50, wtk=  0.00926, kpt=  0.3333 -0.3333  0.1667 (reduced coord)
  -1.94164   -1.94094   -1.94079   -1.94020   -0.80330   -0.80246   -0.80168   -0.79814
  -0.79523   -0.79354   -0.79275   -0.79054   -0.79005   -0.78928   -0.78899   -0.78731
  -0.37193   -0.35269   -0.34540   -0.34205   -0.32438   -0.31698   -0.30692   -0.30298
   0.08616    0.09760    0.10316    0.11034    0.12151    0.12580    0.13277    0.14030
   0.15034    0.15243    0.16468    0.18736    0.19123    0.19614    0.20331    0.21082
   0.21675    0.22426    0.23030    0.23386    0.24493    0.25005    0.26829    0.27661
   0.45150    0.45842
 kpt#  48, nband= 50, wtk=  0.00926, kpt=  0.5000 -0.3333  0.1667 (reduced coord)
  -1.94162   -1.94094   -1.94079   -1.94020   -0.80339   -0.80228   -0.80162   -0.79965
  -0.79507   -0.79341   -0.79206   -0.79119   -0.78912   -0.78882   -0.78848   -0.78822
  -0.36841   -0.35290   -0.34727   -0.34333   -0.32654   -0.31605   -0.30638   -0.30275
   0.08987    0.09860    0.10189    0.11731    0.11995    0.12618    0.13683    0.14143
   0.14703    0.15715    0.16360    0.17963    0.19002    0.20002    0.20734    0.20843
   0.21436    0.22399    0.22661    0.23029    0.24420    0.24640    0.26860    0.27657
   0.45087    0.45491
 kpt#  49, nband= 50, wtk=  0.00926, kpt= -0.3333 -0.3333  0.1667 (reduced coord)
  -1.94164   -1.94094   -1.94079   -1.94020   -0.80363   -0.80214   -0.80162   -0.79824
  -0.79543   -0.79339   -0.79246   -0.79082   -0.78984   -0.78944   -0.78877   -0.78746
  -0.37207   -0.35264   -0.34545   -0.34199   -0.32433   -0.31693   -0.30693   -0.30297
   0.08621    0.09748    0.10323    0.11014    0.12104    0.12590    0.13316    0.14048
   0.15041    0.15281    0.16518    0.18693    0.19120    0.19557    0.20354    0.20976
   0.21702    0.22457    0.22995    0.23416    0.24522    0.25015    0.26849    0.27641
   0.44986    0.45825
 kpt#  50, nband= 50, wtk=  0.00926, kpt= -0.1667 -0.3333  0.1667 (reduced coord)
  -1.94166   -1.94095   -1.94077   -1.94018   -0.80343   -0.80202   -0.80139   -0.79682
  -0.79497   -0.79426   -0.79201   -0.79107   -0.79081   -0.79030   -0.78842   -0.78768
  -0.37741   -0.35178   -0.34351   -0.34036   -0.32018   -0.31722   -0.30851   -0.30374
   0.08259    0.09317    0.09976    0.10373    0.11701    0.12556    0.13293    0.14146
   0.14449    0.16146    0.16510    0.18104    0.19024    0.19733    0.20119    0.21674
   0.22371    0.22753    0.23169    0.23420    0.25111    0.25777    0.26977    0.27532
   0.45449    0.46375
 prteigrs : prtvol=0 or 1, do not print more k-points.

 Total charge density [el/Bohr^3]
      Maximum=    9.4109E-01  at reduced coord.    0.3111    0.8000    0.3111
 Next maximum=    9.3489E-01  at reduced coord.    0.2000    0.2889    0.6889
      Minimum=    4.9515E-03  at reduced coord.    0.4667    0.4667    0.4889
 Next minimum=    4.9585E-03  at reduced coord.    0.4667    0.9556    0.0222
   Integrated=    9.6000E+01

 Cartesian components of stress tensor (hartree/bohr^3)
  sigma(1 1)= -3.26833156E-04  sigma(3 2)= -3.99372166E-06
  sigma(2 2)= -3.72265716E-04  sigma(3 1)= -1.22421058E-06
  sigma(3 3)= -6.37368090E-04  sigma(2 1)=  7.04346889E-06

-Cartesian components of stress tensor (GPa)         [Pressure=  1.3107E+01 GPa]
- sigma(1 1)= -9.61576183E+00  sigma(3 2)= -1.17499328E-01
- sigma(2 2)= -1.09524337E+01  sigma(3 1)= -3.60175128E-02
- sigma(3 3)= -1.87520135E+01  sigma(2 1)=  2.07225974E-01

== END DATASET(S) ==============================================================

 -outvars: echo values of variables after computation  --------

 These variables are accessible in NetCDF format (o_OUT.nc)

            acell      9.5914334888E+00  9.5914334888E+00  9.5914334888E+00 Bohr
              amu      1.78490000E+02  1.59994000E+01
          chkprim           0
             ecut      2.50000000E+01 Hartree
           ecutsm      5.00000000E-01 Hartree
           etotal     -3.5861266949E+02
            fcart     -1.3945516598E-02  1.6559616057E-02  4.4564188051E-02
                      -1.3105830503E-02  1.6024188635E-02 -3.3461289777E-02
                       1.9267574156E-02  1.8966929284E-02  4.5470031311E-02
                       1.7929851739E-02  1.7887023475E-02 -3.4132504008E-02
                       1.0844068685E-02 -1.1917125190E-02  4.1042206252E-05
                       1.2584391018E-02 -1.6432065629E-02 -8.2813978678E-03
                      -1.4375467906E-02 -1.8328203071E-02 -9.2127472187E-03
                      -1.2460836343E-02 -1.3180622723E-02  6.6857069210E-04
                       3.3550238723E-03 -3.4811861427E-03 -5.7383455908E-03
                       1.1932216101E-04 -3.7644688497E-03  2.8905005073E-03
                      -3.3038023094E-03 -1.4794570905E-03  4.2272910021E-03
                      -6.9087779730E-03 -8.5462875622E-04 -7.0353393078E-03
-          fftalg         512
           istwfk        2    0    0    3    0    0    0    0    0    0
                         0    0    0    0    0    0    6    0    0    7
                         0    0    0    0    0    0    0    0    0    0
                         0    0    0    0    0    0    0    0    0    0
                         0    0    0    0    0    0    0    0    0    0
                       outvar_i_n : Printing only first  50 k-points.
              ixc          11
              kpt      0.00000000E+00  0.00000000E+00  0.00000000E+00
                       1.66666667E-01  0.00000000E+00  0.00000000E+00
                       3.33333333E-01  0.00000000E+00  0.00000000E+00
                       5.00000000E-01  0.00000000E+00  0.00000000E+00
                       0.00000000E+00  1.66666667E-01  0.00000000E+00
                       1.66666667E-01  1.66666667E-01  0.00000000E+00
                       3.33333333E-01  1.66666667E-01  0.00000000E+00
                       5.00000000E-01  1.66666667E-01  0.00000000E+00
                      -3.33333333E-01  1.66666667E-01  0.00000000E+00
                      -1.66666667E-01  1.66666667E-01  0.00000000E+00
                       0.00000000E+00  3.33333333E-01  0.00000000E+00
                       1.66666667E-01  3.33333333E-01  0.00000000E+00
                       3.33333333E-01  3.33333333E-01  0.00000000E+00
                       5.00000000E-01  3.33333333E-01  0.00000000E+00
                      -3.33333333E-01  3.33333333E-01  0.00000000E+00
                      -1.66666667E-01  3.33333333E-01  0.00000000E+00
                       0.00000000E+00  5.00000000E-01  0.00000000E+00
                       1.66666667E-01  5.00000000E-01  0.00000000E+00
                       3.33333333E-01  5.00000000E-01  0.00000000E+00
                       5.00000000E-01  5.00000000E-01  0.00000000E+00
                       0.00000000E+00  0.00000000E+00  1.66666667E-01
                       1.66666667E-01  0.00000000E+00  1.66666667E-01
                       3.33333333E-01  0.00000000E+00  1.66666667E-01
                       5.00000000E-01  0.00000000E+00  1.66666667E-01
                      -3.33333333E-01  0.00000000E+00  1.66666667E-01
                      -1.66666667E-01  0.00000000E+00  1.66666667E-01
                       0.00000000E+00  1.66666667E-01  1.66666667E-01
                       1.66666667E-01  1.66666667E-01  1.66666667E-01
                       3.33333333E-01  1.66666667E-01  1.66666667E-01
                       5.00000000E-01  1.66666667E-01  1.66666667E-01
                      -3.33333333E-01  1.66666667E-01  1.66666667E-01
                      -1.66666667E-01  1.66666667E-01  1.66666667E-01
                       0.00000000E+00  3.33333333E-01  1.66666667E-01
                       1.66666667E-01  3.33333333E-01  1.66666667E-01
                       3.33333333E-01  3.33333333E-01  1.66666667E-01
                       5.00000000E-01  3.33333333E-01  1.66666667E-01
                      -3.33333333E-01  3.33333333E-01  1.66666667E-01
                      -1.66666667E-01  3.33333333E-01  1.66666667E-01
                       0.00000000E+00  5.00000000E-01  1.66666667E-01
                       1.66666667E-01  5.00000000E-01  1.66666667E-01
                       3.33333333E-01  5.00000000E-01  1.66666667E-01
                       5.00000000E-01  5.00000000E-01  1.66666667E-01
                      -3.33333333E-01  5.00000000E-01  1.66666667E-01
                      -1.66666667E-01  5.00000000E-01  1.66666667E-01
                       0.00000000E+00 -3.33333333E-01  1.66666667E-01
                       1.66666667E-01 -3.33333333E-01  1.66666667E-01
                       3.33333333E-01 -3.33333333E-01  1.66666667E-01
                       5.00000000E-01 -3.33333333E-01  1.66666667E-01
                      -3.33333333E-01 -3.33333333E-01  1.66666667E-01
                      -1.66666667E-01 -3.33333333E-01  1.66666667E-01
                       outvar_i_n : Printing only first  50 k-points.
           kptopt           2
         kptrlatt        6    0    0      0    6    0      0    0    6
          kptrlen      5.75486009E+01
P           mkmem           4
            natom          12
            nband          50
            ngfft          45      45      45
             nkpt         112
            nstep         100
             nsym           1
           ntypat           2
              occ      2.000000  2.000000  2.000000  2.000000  2.000000  2.000000
                       2.000000  2.000000  2.000000  2.000000  2.000000  2.000000
                       2.000000  2.000000  2.000000  2.000000  2.000000  2.000000
                       2.000000  2.000000  2.000000  2.000000  2.000000  2.000000
                       2.000000  2.000000  2.000000  2.000000  2.000000  2.000000
                       2.000000  2.000000  2.000000  2.000000  2.000000  2.000000
                       2.000000  2.000000  2.000000  2.000000  2.000000  2.000000
                       2.000000  2.000000  2.000000  2.000000  2.000000  2.000000
                       0.000000  0.000000
        pawecutdg      2.50000000E+01 Hartree
         pawxcdev           0
          spgroup           1
           strten     -3.2683315650E-04 -3.7226571628E-04 -6.3736809013E-04
                      -3.9937216619E-06 -1.2242105821E-06  7.0434688927E-06
        symmorphi           0
           tolmxf      1.00000000E-05
           tolvrs      1.00000000E-18
           tsmear      4.00000000E-02 Hartree
            typat      1  1  1  1  2  2  2  2  2  2  2  2
              wtk        0.00463    0.00926    0.00926    0.00463    0.00926    0.00926
                         0.00926    0.00926    0.00926    0.00926    0.00926    0.00926
                         0.00926    0.00926    0.00926    0.00926    0.00463    0.00926
                         0.00926    0.00463    0.00926    0.00926    0.00926    0.00926
                         0.00926    0.00926    0.00926    0.00926    0.00926    0.00926
                         0.00926    0.00926    0.00926    0.00926    0.00926    0.00926
                         0.00926    0.00926    0.00926    0.00926    0.00926    0.00926
                         0.00926    0.00926    0.00926    0.00926    0.00926    0.00926
                         0.00926    0.00926
                       outvars : Printing only first  50 k-points.
           xangst      6.9114517013E-02  3.0144864221E-02 -4.1793242026E-03
                       6.9114212479E-02  2.5679913952E+00  2.5336955285E+00
                       2.4645048272E+00  3.0144914977E-02  2.5336338096E+00
                       2.4645050810E+00  2.5679914460E+00 -4.1176560514E-03
                       1.1130677482E+00  1.3418259834E+00  3.7214055948E+00
                       1.1135136368E+00  3.8790828857E+00  3.9309101196E+00
                       1.4441357303E+00  3.8793310810E+00  1.3932599116E+00
                       1.4445168547E+00  1.3421100122E+00  1.1836615395E+00
                       4.1093905904E+00  9.0816356587E-01  1.8277600009E+00
                       4.1090379399E+00  3.4464746636E+00  7.4963190455E-01
                       3.5242079011E+00  3.4469991728E+00  3.2874558493E+00
                       3.5237335385E+00  9.0865229231E-01  4.3656777929E+00
            xcart      1.3060750896E-01  5.6965537691E-02 -7.8977781634E-03
                       1.3060693347E-01  4.8528004486E+00  4.7879906529E+00
                       4.6572391765E+00  5.6965633606E-02  4.7878740211E+00
                       4.6572396561E+00  4.8528005445E+00 -7.7812422465E-03
                       2.1033932114E+00  2.5356836267E+00  7.0324374035E+00
                       2.1042358188E+00  7.3304043008E+00  7.4283435791E+00
                       2.7290210290E+00  7.3308733218E+00  2.6328796648E+00
                       2.7297412497E+00  2.5362203633E+00  2.2367961436E+00
                       7.7656227889E+00  1.7161804234E+00  3.4539658384E+00
                       7.7649563761E+00  6.5128932381E+00  1.4165990001E+00
                       6.6597877685E+00  6.5138844169E+00  6.2123912291E+00
                       6.6588913531E+00  1.7171039825E+00  8.2499354130E+00
             xred      1.3617100000E-02  5.9392100000E-03 -8.2342000000E-04
                       1.3617040000E-02  5.0595153000E-01  4.9919448000E-01
                       4.8556237000E-01  5.9392200000E-03  4.9918232000E-01
                       4.8556242000E-01  5.0595154000E-01 -8.1127000000E-04
                       2.1929915000E-01  2.6436962000E-01  7.3319983000E-01
                       2.1938700000E-01  7.6426577000E-01  7.7447689000E-01
                       2.8452692000E-01  7.6431467000E-01  2.7450325000E-01
                       2.8460201000E-01  2.6442558000E-01  2.3320770000E-01
                       8.0964152000E-01  1.7892846000E-01  3.6010945000E-01
                       8.0957204000E-01  6.7903231000E-01  1.4769419000E-01
                       6.9434749000E-01  6.7913565000E-01  6.4770206000E-01
                       6.9425403000E-01  1.7902475000E-01  8.6013581000E-01
            znucl       72.00000    8.00000

 Suggested references for the acknowledgment of ABINIT usage.

 Calculation completed.
.Delivered   0 WARNINGs and   0 COMMENTs to log file.

--- !FinalSummary
program: abinit
version: 9.4.1
start_datetime: Sat Jul 03 07:50:36 2021
end_datetime: Sat Jul 03 07:52:49 2021
overall_cpu_time:        4723.8
overall_wall_time:        4786.5
exit_requested_by_user: no
timelimit: 0
pseudos:
    Hf  : 611100caaa846416f88940b772f7c8bf
    O   : 733e923716a9eadd6cde8fc80d866281
usepaw: 0
mpi_procs: 36
omp_threads: 1
num_warnings: 0
num_comments: 0
...