.Version 9.4.1 of ABINIT

 ABINIT is a project of the Universite Catholique de Louvain,
 Corning Inc. and other collaborators, see ~abinit/doc/developers/contributors.txt .
 acknowledgments of the ABINIT effort.

.Starting date : Fri  2 Jul 2021.
- ( at 16h15 )

- input  file    -> PATH11
- output file    -> PATH11.abo
- root for input  files -> i
- root for output files -> o

 Symmetries : space group Pn c 2 (# 30); Bravais oP (primitive ortho.)
     intxc =       0    ionmov =       0      iscf =       7    lmnmax =       8
     lnmax =       8     mgfft =      45  mpssoang =       4    mqgrid =    3001
     natom =      12  nloc_mem =       1    nspden =       1   nspinor =       1
    nsppol =       1      nsym =       2    n1xccc =    2501    ntypat =       2
    occopt =       1   xclevel =       2
-    mband =          50        mffmem =           1         mkmem =           4
       mpw =        5280          nfft =       91125          nkpt =         112
  Rough estimation (10% accuracy) of disk space for files :

------------- Echo of variables that govern the present computation ------------
-
- outvars: echo of selected default values
-   iomode0 =  3 , fftalg0 =512 , wfoptalg0 =  0
-
- outvars: echo of global parameters not present in the input file
-  max_nthreads =    0
-
 -outvars: echo values of preprocessed input variables --------
            acell      9.5914334888E+00  9.5914334888E+00  9.5914334888E+00 Bohr
              amu      1.78490000E+02  1.59994000E+01
          chkprim           0
             ecut      2.50000000E+01 Hartree
           ecutsm      5.00000000E-01 Hartree
-          fftalg         512
           istwfk        2    0    0    3    0    0    0    0    0    0
                         0    0    0    0    0    0    6    0    0    7
                         0    0    0    0    0    0    0    0    0    0
                         0    0    0    0    0    0    0    0    0    0
                         0    0    0    0    0    0    0    0    0    0
                       outvar_i_n : Printing only first  50 k-points.
              ixc          11
              kpt      0.00000000E+00  0.00000000E+00  0.00000000E+00
                       1.66666667E-01  0.00000000E+00  0.00000000E+00
                       3.33333333E-01  0.00000000E+00  0.00000000E+00
                       5.00000000E-01  0.00000000E+00  0.00000000E+00
                       0.00000000E+00  1.66666667E-01  0.00000000E+00
                       1.66666667E-01  1.66666667E-01  0.00000000E+00
                       3.33333333E-01  1.66666667E-01  0.00000000E+00
                       5.00000000E-01  1.66666667E-01  0.00000000E+00
                      -3.33333333E-01  1.66666667E-01  0.00000000E+00
                      -1.66666667E-01  1.66666667E-01  0.00000000E+00
                       0.00000000E+00  3.33333333E-01  0.00000000E+00
                       1.66666667E-01  3.33333333E-01  0.00000000E+00
                       3.33333333E-01  3.33333333E-01  0.00000000E+00
                       5.00000000E-01  3.33333333E-01  0.00000000E+00
                      -3.33333333E-01  3.33333333E-01  0.00000000E+00
                      -1.66666667E-01  3.33333333E-01  0.00000000E+00
                       0.00000000E+00  5.00000000E-01  0.00000000E+00
                       1.66666667E-01  5.00000000E-01  0.00000000E+00
                       3.33333333E-01  5.00000000E-01  0.00000000E+00
                       5.00000000E-01  5.00000000E-01  0.00000000E+00
                       0.00000000E+00  0.00000000E+00  1.66666667E-01
                       1.66666667E-01  0.00000000E+00  1.66666667E-01
                       3.33333333E-01  0.00000000E+00  1.66666667E-01
                       5.00000000E-01  0.00000000E+00  1.66666667E-01
                      -3.33333333E-01  0.00000000E+00  1.66666667E-01
                      -1.66666667E-01  0.00000000E+00  1.66666667E-01
                       0.00000000E+00  1.66666667E-01  1.66666667E-01
                       1.66666667E-01  1.66666667E-01  1.66666667E-01
                       3.33333333E-01  1.66666667E-01  1.66666667E-01
                       5.00000000E-01  1.66666667E-01  1.66666667E-01
                      -3.33333333E-01  1.66666667E-01  1.66666667E-01
                      -1.66666667E-01  1.66666667E-01  1.66666667E-01
                       0.00000000E+00  3.33333333E-01  1.66666667E-01
                       1.66666667E-01  3.33333333E-01  1.66666667E-01
                       3.33333333E-01  3.33333333E-01  1.66666667E-01
                       5.00000000E-01  3.33333333E-01  1.66666667E-01
                      -3.33333333E-01  3.33333333E-01  1.66666667E-01
                      -1.66666667E-01  3.33333333E-01  1.66666667E-01
                       0.00000000E+00  5.00000000E-01  1.66666667E-01
                       1.66666667E-01  5.00000000E-01  1.66666667E-01
                       3.33333333E-01  5.00000000E-01  1.66666667E-01
                       5.00000000E-01  5.00000000E-01  1.66666667E-01
                      -3.33333333E-01  5.00000000E-01  1.66666667E-01
                      -1.66666667E-01  5.00000000E-01  1.66666667E-01
                       0.00000000E+00 -3.33333333E-01  1.66666667E-01
                       1.66666667E-01 -3.33333333E-01  1.66666667E-01
                       3.33333333E-01 -3.33333333E-01  1.66666667E-01
                       5.00000000E-01 -3.33333333E-01  1.66666667E-01
                      -3.33333333E-01 -3.33333333E-01  1.66666667E-01
                      -1.66666667E-01 -3.33333333E-01  1.66666667E-01
                       outvar_i_n : Printing only first  50 k-points.
           kptopt           2
         kptrlatt        6    0    0      0    6    0      0    0    6
          kptrlen      5.75486009E+01
P           mkmem           4
            natom          12
            nband          50
            ngfft          45      45      45
             nkpt         112
            nstep         100
             nsym           2
           ntypat           2
              occ      2.000000  2.000000  2.000000  2.000000  2.000000  2.000000
                       2.000000  2.000000  2.000000  2.000000  2.000000  2.000000
                       2.000000  2.000000  2.000000  2.000000  2.000000  2.000000
                       2.000000  2.000000  2.000000  2.000000  2.000000  2.000000
                       2.000000  2.000000  2.000000  2.000000  2.000000  2.000000
                       2.000000  2.000000  2.000000  2.000000  2.000000  2.000000
                       2.000000  2.000000  2.000000  2.000000  2.000000  2.000000
                       2.000000  2.000000  2.000000  2.000000  2.000000  2.000000
                       0.000000  0.000000
        pawecutdg      2.50000000E+01 Hartree
         pawxcdev           0
          spgroup          30
        symmorphi           0
           symrel      1  0  0   0  1  0   0  0  1      -1  0  0   0  1  0   0  0 -1
           tolmxf      1.00000000E-05
           tolvrs      1.00000000E-18
           tsmear      4.00000000E-02 Hartree
            typat      1  1  1  1  2  2  2  2  2  2  2  2
              wtk        0.00463    0.00926    0.00926    0.00463    0.00926    0.00926
                         0.00926    0.00926    0.00926    0.00926    0.00926    0.00926
                         0.00926    0.00926    0.00926    0.00926    0.00463    0.00926
                         0.00926    0.00463    0.00926    0.00926    0.00926    0.00926
                         0.00926    0.00926    0.00926    0.00926    0.00926    0.00926
                         0.00926    0.00926    0.00926    0.00926    0.00926    0.00926
                         0.00926    0.00926    0.00926    0.00926    0.00926    0.00926
                         0.00926    0.00926    0.00926    0.00926    0.00926    0.00926
                         0.00926    0.00926
                       outvars : Printing only first  50 k-points.
           xangst      0.0000000000E+00  1.5758166725E-02  0.0000000000E+00
                       0.0000000000E+00  2.5535421667E+00  2.5377840000E+00
                       2.5377840000E+00  1.5774129387E-02  2.5377840000E+00
                       2.5377840000E+00  2.5535581294E+00  0.0000000000E+00
                       1.1989691226E+00  1.1937435970E+00  3.5513192506E+00
                       1.1989691226E+00  3.7315275970E+00  4.0620327494E+00
                       1.3388148520E+00  3.7316624041E+00  1.5242490539E+00
                       1.3388148520E+00  1.1938784041E+00  1.0135349461E+00
                       3.8765988774E+00  1.1937435970E+00  1.5242487494E+00
                       3.8765988774E+00  3.7315275970E+00  1.0135352506E+00
                       3.7367531480E+00  3.7316624041E+00  3.5513189461E+00
                       3.7367531480E+00  1.1938784041E+00  4.0620330539E+00
            xcart      0.0000000000E+00  2.9778619467E-02  0.0000000000E+00
                       0.0000000000E+00  4.8254953639E+00  4.7957167444E+00
                       4.7957167444E+00  2.9808784525E-02  4.7957167444E+00
                       4.7957167444E+00  4.8255255289E+00  0.0000000000E+00
                       2.2657232836E+00  2.2558484712E+00  6.7110207941E+00
                       2.2657232836E+00  7.0515652156E+00  7.6761294391E+00
                       2.5299934129E+00  7.0518199641E+00  2.8804132702E+00
                       2.5299934129E+00  2.2561032197E+00  1.9153034742E+00
                       7.3257102052E+00  2.2558484712E+00  2.8804126947E+00
                       7.3257102052E+00  7.0515652156E+00  1.9153040497E+00
                       7.0614400760E+00  7.0518199641E+00  6.7110202186E+00
                       7.0614400760E+00  2.2561032197E+00  7.6761300146E+00
             xred      0.0000000000E+00  3.1047100000E-03  0.0000000000E+00
                       0.0000000000E+00  5.0310471000E-01  5.0000000000E-01
                       5.0000000000E-01  3.1078550000E-03  5.0000000000E-01
                       5.0000000000E-01  5.0310785500E-01  0.0000000000E+00
                       2.3622363500E-01  2.3519409000E-01  6.9968903000E-01
                       2.3622363500E-01  7.3519409000E-01  8.0031097000E-01
                       2.6377636000E-01  7.3522065000E-01  3.0031103000E-01
                       2.6377636000E-01  2.3522065000E-01  1.9968897000E-01
                       7.6377636500E-01  2.3519409000E-01  3.0031097000E-01
                       7.6377636500E-01  7.3519409000E-01  1.9968903000E-01
                       7.3622364000E-01  7.3522065000E-01  6.9968897000E-01
                       7.3622364000E-01  2.3522065000E-01  8.0031103000E-01
            znucl       72.00000    8.00000

 chkinp: Checking input parameters for consistency.

== DATASET  1 ==================================================================
-   mpi_nproc: 36, omp_nthreads: -1 (-1 if OMP is not activated)
-    --> not optimal distribution: autoparal keyword recommended in input file <--

--- !DatasetInfo
iteration_state: {dtset: 1, }
[...]
       0.763776365000      0.735194090000      0.199689030000
       0.736223640000      0.735220650000      0.699688970000
       0.736223640000      0.235220650000      0.800311030000
 rms dE/dt=  9.7866E-03; max dE/dt=  2.3985E-02; dE/dt below (all hartree)
    1       0.000000000000      0.023985141882      0.000000000000
    2       0.000000000000      0.023900220802      0.000000000000
    3       0.000000000000      0.023979680708      0.000000000000
    4       0.000000000000      0.023914830446      0.000000000000
    5       0.000669496381     -0.012052437003      0.000516802330
    6       0.000729321170     -0.012027121925     -0.000586015625
    7      -0.000491946133     -0.011946763269     -0.000532484126
    8      -0.000500293512     -0.011912039335      0.000594044181
    9      -0.000669496381     -0.012052437003     -0.000516802330
   10      -0.000729321170     -0.012027121925      0.000586015625
   11       0.000491946133     -0.011946763269      0.000532484126
   12       0.000500293512     -0.011912039335     -0.000594044181

 cartesian coordinates (angstrom) at end:
    1      0.00000000000000     0.01575816672528     0.00000000000000
    2      0.00000000000000     2.55354216672528     2.53778400000000
    3      2.53778400000000     0.01577412938664     2.53778400000000
    4      2.53778400000000     2.55355812938664     0.00000000000000
    5      1.19896912264968     1.19374359699312     3.55131925061904
    6      1.19896912264968     3.73152759699312     4.06203274938096
    7      1.33881485197248     3.73166240407920     1.52424905391504
    8      1.33881485197248     1.19387840407920     1.01353494608496
    9      3.87659887735032     1.19374359699312     1.52424874938096
   10      3.87659887735032     3.73152759699312     1.01353525061904
   11      3.73675314802752     3.73166240407920     3.55131894608496
   12      3.73675314802752     1.19387840407920     4.06203305391504

 cartesian forces (hartree/bohr) at end:
    1     -0.00000000000000    -0.00250152520780     0.00000000000000
    2     -0.00000000000000    -0.00249267136125     0.00000000000000
    3     -0.00000000000000    -0.00250095582737     0.00000000000000
    4     -0.00000000000000    -0.00249419455833     0.00000000000000
    5     -0.00006980149337     0.00125574203773    -0.00005388165702
    6     -0.00007603880804     0.00125310269525     0.00006109781464
    7      0.00005129015738     0.00124472452572     0.00005551663640
    8      0.00005216045265     0.00124110421867    -0.00006193486945
    9      0.00006980149337     0.00125574203773     0.00005388165702
   10      0.00007603880804     0.00125310269525    -0.00006109781464
   11     -0.00005129015738     0.00124472452572    -0.00005551663640
   12     -0.00005216045265     0.00124110421867     0.00006193486945
 frms,max,avg= 1.0203432E-03 2.5015252E-03   0.000E+00  8.415E-07  0.000E+00 h/b

 cartesian forces (eV/Angstrom) at end:
    1     -0.00000000000000    -0.12863358731246     0.00000000000000
    2     -0.00000000000000    -0.12817830425566     0.00000000000000
    3     -0.00000000000000    -0.12860430859604     0.00000000000000
    4     -0.00000000000000    -0.12825663019207     0.00000000000000
    5     -0.00358933680283     0.06457284641749    -0.00277070597233
    6     -0.00391007239226     0.06443712598139     0.00314177568543
    7      0.00263744571403     0.06400630321840     0.00285477998517
    8      0.00268219809249     0.06382013956083    -0.00318481877049
    9      0.00358933680283     0.06457284641749     0.00277070597233
   10      0.00391007239226     0.06443712598139    -0.00314177568543
   11     -0.00263744571403     0.06400630321840    -0.00285477998517
   12     -0.00268219809249     0.06382013956083     0.00318481877049
 frms,max,avg= 5.2468154E-02 1.2863359E-01   0.000E+00  4.327E-05  0.000E+00 e/A
 length scales=  9.591433488838  9.591433488838  9.591433488838 bohr
              =  5.075568000000  5.075568000000  5.075568000000 angstroms
 prteigrs : about to open file o_EIG
 Fermi (or HOMO) energy (hartree) =   0.27662   Average Vxc (hartree)=  -0.44595
 Eigenvalues (hartree) for nkpt= 112  k points:
 kpt#   1, nband= 50, wtk=  0.00463, kpt=  0.0000  0.0000  0.0000 (reduced coord)
  -1.94309   -1.94242   -1.94239   -1.94239   -0.80503   -0.80494   -0.80465   -0.79361
  -0.79283   -0.79248   -0.79179   -0.79144   -0.79120   -0.78808   -0.78666   -0.78664
  -0.39522   -0.33823   -0.32994   -0.32877   -0.31888   -0.31651   -0.31552   -0.29862
   0.06063    0.06094    0.07227    0.09601    0.10326    0.10419    0.16031    0.16360
   0.16654    0.16975    0.17200    0.17205    0.21813    0.22356    0.22420    0.22936
   0.24407    0.25243    0.25289    0.25412    0.25439    0.26571    0.26932    0.27517
   0.44621    0.44634
 prteigrs : prtvol=0 or 1, do not print more k-points.

--- !EnergyTerms
iteration_state     : {dtset: 1, }
comment             : Components of total free energy in Hartree
kinetic             :  1.46243289044854E+02
hartree             :  5.60120662486727E+01
xc                  : -9.09154452773138E+01
Ewald energy        : -2.70053267010900E+02
psp_core            :  1.49595106529080E+01
local_psp           : -2.05760215800011E+02
non_local_psp       : -9.11943870914160E+00
total_energy        : -3.58633500850932E+02
total_energy_eV     : -9.75891385671033E+03
band_energy         : -3.11154025685157E+01
...

 Cartesian components of stress tensor (hartree/bohr^3)
  sigma(1 1)= -1.91634405E-04  sigma(3 2)=  0.00000000E+00
  sigma(2 2)= -1.98592826E-04  sigma(3 1)= -3.46784024E-09
  sigma(3 3)= -4.90334598E-04  sigma(2 1)=  0.00000000E+00

-Cartesian components of stress tensor (GPa)         [Pressure=  8.6357E+00 GPa]
- sigma(1 1)= -5.63807791E+00  sigma(3 2)=  0.00000000E+00
- sigma(2 2)= -5.84280168E+00  sigma(3 1)= -1.02027365E-04
- sigma(3 3)= -1.44261395E+01  sigma(2 1)=  0.00000000E+00

== END DATASET(S) ==============================================================

 -outvars: echo values of variables after computation  --------
            acell      9.5914334888E+00  9.5914334888E+00  9.5914334888E+00 Bohr
              amu      1.78490000E+02  1.59994000E+01
          chkprim           0
             ecut      2.50000000E+01 Hartree
           ecutsm      5.00000000E-01 Hartree
           etotal     -3.5863350085E+02
            fcart     -5.6468863150E-22 -2.5015252078E-03  0.0000000000E+00
                      -5.6468863150E-22 -2.4926713613E-03  0.0000000000E+00
                      -5.6468863150E-22 -2.5009558274E-03  0.0000000000E+00
                      -5.6468863150E-22 -2.4941945583E-03  0.0000000000E+00
                      -6.9801493367E-05  1.2557420377E-03 -5.3881657023E-05
                      -7.6038808043E-05  1.2531026952E-03  6.1097814642E-05
                       5.1290157382E-05  1.2447245257E-03  5.5516636400E-05
                       5.2160452654E-05  1.2411042187E-03 -6.1934869447E-05
                       6.9801493367E-05  1.2557420377E-03  5.3881657023E-05
                       7.6038808043E-05  1.2531026952E-03 -6.1097814642E-05
                      -5.1290157382E-05  1.2447245257E-03 -5.5516636400E-05
                      -5.2160452654E-05  1.2411042187E-03  6.1934869447E-05
-          fftalg         512
           istwfk        2    0    0    3    0    0    0    0    0    0
                         0    0    0    0    0    0    6    0    0    7
                         0    0    0    0    0    0    0    0    0    0
                         0    0    0    0    0    0    0    0    0    0
                         0    0    0    0    0    0    0    0    0    0
                       outvar_i_n : Printing only first  50 k-points.
              ixc          11
              kpt      0.00000000E+00  0.00000000E+00  0.00000000E+00
                       1.66666667E-01  0.00000000E+00  0.00000000E+00
                       3.33333333E-01  0.00000000E+00  0.00000000E+00
                       5.00000000E-01  0.00000000E+00  0.00000000E+00
                       0.00000000E+00  1.66666667E-01  0.00000000E+00
                       1.66666667E-01  1.66666667E-01  0.00000000E+00
                       3.33333333E-01  1.66666667E-01  0.00000000E+00
                       5.00000000E-01  1.66666667E-01  0.00000000E+00
                      -3.33333333E-01  1.66666667E-01  0.00000000E+00
                      -1.66666667E-01  1.66666667E-01  0.00000000E+00
                       0.00000000E+00  3.33333333E-01  0.00000000E+00
                       1.66666667E-01  3.33333333E-01  0.00000000E+00
                       3.33333333E-01  3.33333333E-01  0.00000000E+00
                       5.00000000E-01  3.33333333E-01  0.00000000E+00
                      -3.33333333E-01  3.33333333E-01  0.00000000E+00
                      -1.66666667E-01  3.33333333E-01  0.00000000E+00
                       0.00000000E+00  5.00000000E-01  0.00000000E+00
                       1.66666667E-01  5.00000000E-01  0.00000000E+00
                       3.33333333E-01  5.00000000E-01  0.00000000E+00
                       5.00000000E-01  5.00000000E-01  0.00000000E+00
                       0.00000000E+00  0.00000000E+00  1.66666667E-01
                       1.66666667E-01  0.00000000E+00  1.66666667E-01
                       3.33333333E-01  0.00000000E+00  1.66666667E-01
                       5.00000000E-01  0.00000000E+00  1.66666667E-01
                      -3.33333333E-01  0.00000000E+00  1.66666667E-01
                      -1.66666667E-01  0.00000000E+00  1.66666667E-01
                       0.00000000E+00  1.66666667E-01  1.66666667E-01
                       1.66666667E-01  1.66666667E-01  1.66666667E-01
                       3.33333333E-01  1.66666667E-01  1.66666667E-01
                       5.00000000E-01  1.66666667E-01  1.66666667E-01
                      -3.33333333E-01  1.66666667E-01  1.66666667E-01
                      -1.66666667E-01  1.66666667E-01  1.66666667E-01
                       0.00000000E+00  3.33333333E-01  1.66666667E-01
                       1.66666667E-01  3.33333333E-01  1.66666667E-01
                       3.33333333E-01  3.33333333E-01  1.66666667E-01
                       5.00000000E-01  3.33333333E-01  1.66666667E-01
                      -3.33333333E-01  3.33333333E-01  1.66666667E-01
                      -1.66666667E-01  3.33333333E-01  1.66666667E-01
                       0.00000000E+00  5.00000000E-01  1.66666667E-01
                       1.66666667E-01  5.00000000E-01  1.66666667E-01
                       3.33333333E-01  5.00000000E-01  1.66666667E-01
                       5.00000000E-01  5.00000000E-01  1.66666667E-01
                      -3.33333333E-01  5.00000000E-01  1.66666667E-01
                      -1.66666667E-01  5.00000000E-01  1.66666667E-01
                       0.00000000E+00 -3.33333333E-01  1.66666667E-01
                       1.66666667E-01 -3.33333333E-01  1.66666667E-01
                       3.33333333E-01 -3.33333333E-01  1.66666667E-01
                       5.00000000E-01 -3.33333333E-01  1.66666667E-01
                      -3.33333333E-01 -3.33333333E-01  1.66666667E-01
                      -1.66666667E-01 -3.33333333E-01  1.66666667E-01
                       outvar_i_n : Printing only first  50 k-points.
           kptopt           2
         kptrlatt        6    0    0      0    6    0      0    0    6
          kptrlen      5.75486009E+01
P           mkmem           4
            natom          12
            nband          50
            ngfft          45      45      45
             nkpt         112
            nstep         100
             nsym           2
           ntypat           2
              occ      2.000000  2.000000  2.000000  2.000000  2.000000  2.000000
                       2.000000  2.000000  2.000000  2.000000  2.000000  2.000000
                       2.000000  2.000000  2.000000  2.000000  2.000000  2.000000
                       2.000000  2.000000  2.000000  2.000000  2.000000  2.000000
                       2.000000  2.000000  2.000000  2.000000  2.000000  2.000000
                       2.000000  2.000000  2.000000  2.000000  2.000000  2.000000
                       2.000000  2.000000  2.000000  2.000000  2.000000  2.000000
                       2.000000  2.000000  2.000000  2.000000  2.000000  2.000000
                       0.000000  0.000000
        pawecutdg      2.50000000E+01 Hartree
         pawxcdev           0
          spgroup          30
           strten     -1.9163440526E-04 -1.9859282615E-04 -4.9033459751E-04
                       0.0000000000E+00 -3.4678402365E-09  0.0000000000E+00
        symmorphi           0
           symrel      1  0  0   0  1  0   0  0  1      -1  0  0   0  1  0   0  0 -1
           tolmxf      1.00000000E-05
           tolvrs      1.00000000E-18
           tsmear      4.00000000E-02 Hartree
            typat      1  1  1  1  2  2  2  2  2  2  2  2
              wtk        0.00463    0.00926    0.00926    0.00463    0.00926    0.00926
                         0.00926    0.00926    0.00926    0.00926    0.00926    0.00926
                         0.00926    0.00926    0.00926    0.00926    0.00463    0.00926
                         0.00926    0.00463    0.00926    0.00926    0.00926    0.00926
                         0.00926    0.00926    0.00926    0.00926    0.00926    0.00926
                         0.00926    0.00926    0.00926    0.00926    0.00926    0.00926
                         0.00926    0.00926    0.00926    0.00926    0.00926    0.00926
                         0.00926    0.00926    0.00926    0.00926    0.00926    0.00926
                         0.00926    0.00926
                       outvars : Printing only first  50 k-points.
           xangst      0.0000000000E+00  1.5758166725E-02  0.0000000000E+00
                       0.0000000000E+00  2.5535421667E+00  2.5377840000E+00
                       2.5377840000E+00  1.5774129387E-02  2.5377840000E+00
                       2.5377840000E+00  2.5535581294E+00  0.0000000000E+00
                       1.1989691226E+00  1.1937435970E+00  3.5513192506E+00
                       1.1989691226E+00  3.7315275970E+00  4.0620327494E+00
                       1.3388148520E+00  3.7316624041E+00  1.5242490539E+00
                       1.3388148520E+00  1.1938784041E+00  1.0135349461E+00
                       3.8765988774E+00  1.1937435970E+00  1.5242487494E+00
                       3.8765988774E+00  3.7315275970E+00  1.0135352506E+00
                       3.7367531480E+00  3.7316624041E+00  3.5513189461E+00
                       3.7367531480E+00  1.1938784041E+00  4.0620330539E+00
            xcart      0.0000000000E+00  2.9778619467E-02  0.0000000000E+00
                       0.0000000000E+00  4.8254953639E+00  4.7957167444E+00
                       4.7957167444E+00  2.9808784525E-02  4.7957167444E+00
                       4.7957167444E+00  4.8255255289E+00  0.0000000000E+00
                       2.2657232836E+00  2.2558484712E+00  6.7110207941E+00
                       2.2657232836E+00  7.0515652156E+00  7.6761294391E+00
                       2.5299934129E+00  7.0518199641E+00  2.8804132702E+00
                       2.5299934129E+00  2.2561032197E+00  1.9153034742E+00
                       7.3257102052E+00  2.2558484712E+00  2.8804126947E+00
                       7.3257102052E+00  7.0515652156E+00  1.9153040497E+00
                       7.0614400760E+00  7.0518199641E+00  6.7110202186E+00
                       7.0614400760E+00  2.2561032197E+00  7.6761300146E+00
             xred      0.0000000000E+00  3.1047100000E-03  0.0000000000E+00
                       0.0000000000E+00  5.0310471000E-01  5.0000000000E-01
                       5.0000000000E-01  3.1078550000E-03  5.0000000000E-01
                       5.0000000000E-01  5.0310785500E-01  0.0000000000E+00
                       2.3622363500E-01  2.3519409000E-01  6.9968903000E-01
                       2.3622363500E-01  7.3519409000E-01  8.0031097000E-01
                       2.6377636000E-01  7.3522065000E-01  3.0031103000E-01
                       2.6377636000E-01  2.3522065000E-01  1.9968897000E-01
                       7.6377636500E-01  2.3519409000E-01  3.0031097000E-01
                       7.6377636500E-01  7.3519409000E-01  1.9968903000E-01
                       7.3622364000E-01  7.3522065000E-01  6.9968897000E-01
                       7.3622364000E-01  2.3522065000E-01  8.0031103000E-01
            znucl       72.00000    8.00000

- Timing analysis has been suppressed with timopt=0

 Suggested references for the acknowledgment of ABINIT usage.

 Calculation completed.
.Delivered   0 WARNINGs and   0 COMMENTs to log file.