.Version 9.4.1 of ABINIT

 ABINIT is a project of the Universite Catholique de Louvain,
 Corning Inc. and other collaborators, see ~abinit/doc/developers/contributors.txt .
 acknowledgments of the ABINIT effort.

.Starting date : Sat  3 Jul 2021.
- ( at 07h22 )

- input  file    -> PATH9
- output file    -> PATH9.abo
- root for input  files -> i
- root for output files -> o

 Symmetries : the unit cell is not primitive
     intxc =       0    ionmov =       0      iscf =       7    lmnmax =       8
     lnmax =       8     mgfft =      45  mpssoang =       4    mqgrid =    3001
     natom =      12  nloc_mem =       1    nspden =       1   nspinor =       1
    nsppol =       1      nsym =       2    n1xccc =    2501    ntypat =       2
    occopt =       1   xclevel =       2
-    mband =          50        mffmem =           1         mkmem =           4
       mpw =        5280          nfft =       91125          nkpt =         112
  Rough estimation (10% accuracy) of disk space for files :

------------- Echo of variables that govern the present computation ------------
-
- outvars: echo of selected default values
-   iomode0 =  3 , fftalg0 =512 , wfoptalg0 =  0
-
- outvars: echo of global parameters not present in the input file
-  max_nthreads =    0
-
 -outvars: echo values of preprocessed input variables --------
            acell      9.5914334888E+00  9.5914334888E+00  9.5914334888E+00 Bohr
              amu      1.78490000E+02  1.59994000E+01
          chkprim           0
             ecut      2.50000000E+01 Hartree
           ecutsm      5.00000000E-01 Hartree
-          fftalg         512
           istwfk        2    0    0    3    0    0    0    0    0    0
                         0    0    0    0    0    0    6    0    0    7
                         0    0    0    0    0    0    0    0    0    0
                         0    0    0    0    0    0    0    0    0    0
                         0    0    0    0    0    0    0    0    0    0
                       outvar_i_n : Printing only first  50 k-points.
              ixc          11
              kpt      0.00000000E+00  0.00000000E+00  0.00000000E+00
                       1.66666667E-01  0.00000000E+00  0.00000000E+00
                       3.33333333E-01  0.00000000E+00  0.00000000E+00
                       5.00000000E-01  0.00000000E+00  0.00000000E+00
                       0.00000000E+00  1.66666667E-01  0.00000000E+00
                       1.66666667E-01  1.66666667E-01  0.00000000E+00
                       3.33333333E-01  1.66666667E-01  0.00000000E+00
                       5.00000000E-01  1.66666667E-01  0.00000000E+00
                      -3.33333333E-01  1.66666667E-01  0.00000000E+00
                      -1.66666667E-01  1.66666667E-01  0.00000000E+00
                       0.00000000E+00  3.33333333E-01  0.00000000E+00
                       1.66666667E-01  3.33333333E-01  0.00000000E+00
                       3.33333333E-01  3.33333333E-01  0.00000000E+00
                       5.00000000E-01  3.33333333E-01  0.00000000E+00
                      -3.33333333E-01  3.33333333E-01  0.00000000E+00
                      -1.66666667E-01  3.33333333E-01  0.00000000E+00
                       0.00000000E+00  5.00000000E-01  0.00000000E+00
                       1.66666667E-01  5.00000000E-01  0.00000000E+00
                       3.33333333E-01  5.00000000E-01  0.00000000E+00
                       5.00000000E-01  5.00000000E-01  0.00000000E+00
                       0.00000000E+00  0.00000000E+00  1.66666667E-01
                       1.66666667E-01  0.00000000E+00  1.66666667E-01
                       3.33333333E-01  0.00000000E+00  1.66666667E-01
                       5.00000000E-01  0.00000000E+00  1.66666667E-01
                      -3.33333333E-01  0.00000000E+00  1.66666667E-01
                      -1.66666667E-01  0.00000000E+00  1.66666667E-01
                       0.00000000E+00  1.66666667E-01  1.66666667E-01
                       1.66666667E-01  1.66666667E-01  1.66666667E-01
                       3.33333333E-01  1.66666667E-01  1.66666667E-01
                       5.00000000E-01  1.66666667E-01  1.66666667E-01
                      -3.33333333E-01  1.66666667E-01  1.66666667E-01
                      -1.66666667E-01  1.66666667E-01  1.66666667E-01
                       0.00000000E+00  3.33333333E-01  1.66666667E-01
                       1.66666667E-01  3.33333333E-01  1.66666667E-01
                       3.33333333E-01  3.33333333E-01  1.66666667E-01
                       5.00000000E-01  3.33333333E-01  1.66666667E-01
                      -3.33333333E-01  3.33333333E-01  1.66666667E-01
                      -1.66666667E-01  3.33333333E-01  1.66666667E-01
                       0.00000000E+00  5.00000000E-01  1.66666667E-01
                       1.66666667E-01  5.00000000E-01  1.66666667E-01
                       3.33333333E-01  5.00000000E-01  1.66666667E-01
                       5.00000000E-01  5.00000000E-01  1.66666667E-01
                      -3.33333333E-01  5.00000000E-01  1.66666667E-01
                      -1.66666667E-01  5.00000000E-01  1.66666667E-01
                       0.00000000E+00 -3.33333333E-01  1.66666667E-01
                       1.66666667E-01 -3.33333333E-01  1.66666667E-01
                       3.33333333E-01 -3.33333333E-01  1.66666667E-01
                       5.00000000E-01 -3.33333333E-01  1.66666667E-01
                      -3.33333333E-01 -3.33333333E-01  1.66666667E-01
                      -1.66666667E-01 -3.33333333E-01  1.66666667E-01
                       outvar_i_n : Printing only first  50 k-points.
           kptopt           2
         kptrlatt        6    0    0      0    6    0      0    0    6
          kptrlen      5.75486009E+01
P           mkmem           4
            natom          12
            nband          50
            ngfft          45      45      45
             nkpt         112
            nstep         100
             nsym           2
           ntypat           2
              occ      2.000000  2.000000  2.000000  2.000000  2.000000  2.000000
                       2.000000  2.000000  2.000000  2.000000  2.000000  2.000000
                       2.000000  2.000000  2.000000  2.000000  2.000000  2.000000
                       2.000000  2.000000  2.000000  2.000000  2.000000  2.000000
                       2.000000  2.000000  2.000000  2.000000  2.000000  2.000000
                       2.000000  2.000000  2.000000  2.000000  2.000000  2.000000
                       2.000000  2.000000  2.000000  2.000000  2.000000  2.000000
                       2.000000  2.000000  2.000000  2.000000  2.000000  2.000000
                       0.000000  0.000000
        pawecutdg      2.50000000E+01 Hartree
         pawxcdev           0
        symmorphi           0
           symrel      1  0  0   0  1  0   0  0  1      -1  0  0   0  1  0   0  0 -1
           tolmxf      1.00000000E-05
           tolvrs      1.00000000E-18
           tsmear      4.00000000E-02 Hartree
            typat      1  1  1  1  2  2  2  2  2  2  2  2
              wtk        0.00463    0.00926    0.00926    0.00463    0.00926    0.00926
                         0.00926    0.00926    0.00926    0.00926    0.00926    0.00926
                         0.00926    0.00926    0.00926    0.00926    0.00463    0.00926
                         0.00926    0.00463    0.00926    0.00926    0.00926    0.00926
                         0.00926    0.00926    0.00926    0.00926    0.00926    0.00926
                         0.00926    0.00926    0.00926    0.00926    0.00926    0.00926
                         0.00926    0.00926    0.00926    0.00926    0.00926    0.00926
                         0.00926    0.00926    0.00926    0.00926    0.00926    0.00926
                         0.00926    0.00926
                       outvars : Printing only first  50 k-points.
           xangst      0.0000000000E+00  3.7686092400E-06  0.0000000000E+00
                       0.0000000000E+00  2.5377877686E+00  2.5377840000E+00
                       2.5377840000E+00  3.7686092400E-06  2.5377840000E+00
                       2.5377840000E+00  2.5377877686E+00  0.0000000000E+00
                       1.2116114616E+00  1.1923753254E+00  3.5543954255E+00
                       1.2116114616E+00  3.7301593254E+00  4.0589565745E+00
                       1.3261725384E+00  3.7301593254E+00  1.5211725745E+00
                       1.3261725384E+00  1.1923753254E+00  1.0166114255E+00
                       3.8639565384E+00  1.1923753254E+00  1.5211725745E+00
                       3.8639565384E+00  3.7301593254E+00  1.0166114255E+00
                       3.7493954616E+00  3.7301593254E+00  3.5543954255E+00
                       3.7493954616E+00  1.1923753254E+00  4.0589565745E+00
            xcart      0.0000000000E+00  7.1216393654E-06  0.0000000000E+00
                       0.0000000000E+00  4.7957238661E+00  4.7957167444E+00
                       4.7957167444E+00  7.1216393654E-06  4.7957167444E+00
                       4.7957167444E+00  4.7957238661E+00  0.0000000000E+00
                       2.2896138419E+00  2.2532628126E+00  6.7168339222E+00
                       2.2896138419E+00  7.0489795570E+00  7.6703163111E+00
                       2.5061029025E+00  7.0489795570E+00  2.8745995667E+00
                       2.5061029025E+00  2.2532628126E+00  1.9211171777E+00
                       7.3018196469E+00  2.2532628126E+00  2.8745995667E+00
                       7.3018196469E+00  7.0489795570E+00  1.9211171777E+00
                       7.0853305864E+00  7.0489795570E+00  6.7168339222E+00
                       7.0853305864E+00  2.2532628126E+00  7.6703163111E+00
             xred      0.0000000000E+00  7.4249999999E-07  0.0000000000E+00
                       0.0000000000E+00  5.0000074250E-01  5.0000000000E-01
                       5.0000000000E-01  7.4249999999E-07  5.0000000000E-01
                       5.0000000000E-01  5.0000074250E-01  0.0000000000E+00
                       2.3871445750E-01  2.3492451000E-01  7.0029510500E-01
                       2.3871445750E-01  7.3492451000E-01  7.9970489500E-01
                       2.6128554250E-01  7.3492451000E-01  2.9970489500E-01
                       2.6128554250E-01  2.3492451000E-01  2.0029510500E-01
                       7.6128554250E-01  2.3492451000E-01  2.9970489500E-01
                       7.6128554250E-01  7.3492451000E-01  2.0029510500E-01
                       7.3871445750E-01  7.3492451000E-01  7.0029510500E-01
                       7.3871445750E-01  2.3492451000E-01  7.9970489500E-01
            znucl       72.00000    8.00000

 chkinp: Checking input parameters for consistency.

== DATASET  1 ==================================================================
-   mpi_nproc: 36, omp_nthreads: -1 (-1 if OMP is not activated)
-    --> not optimal distribution: autoparal keyword recommended in input file <--

--- !DatasetInfo
iteration_state: {dtset: 1, }
dimensions: {natom: 12, nkpt: 112, mband: 50, nsppol: 1, nspinor: 1, nspden: 1, mpw: 5280, }
cutoff_energies: {ecut:  25.0, pawecutdg:  25.0, }
[...]
       0.761285542500      0.734924510000      0.200295105000
       0.738714457500      0.734924510000      0.700295105000
       0.738714457500      0.234924510000      0.799704895000
 rms dE/dt=  9.2866E-03; max dE/dt=  2.2604E-02; dE/dt below (all hartree)
    1       0.000000000000      0.022604434563      0.000000000000
    2       0.000000000000      0.022518939890      0.000000000000
    3       0.000000000000      0.022595664139      0.000000000000
    4       0.000000000000      0.022527802131      0.000000000000
    5       0.002410303565     -0.011291189641      0.000391325707
    6       0.002489638379     -0.011285017007     -0.000447690070
    7      -0.002520891930     -0.011282371028     -0.000405005471
    8      -0.002528882564     -0.011253496180      0.000460231764
    9      -0.002410303565     -0.011291189641     -0.000391325707
   10      -0.002489638379     -0.011285017007      0.000447690070
   11       0.002520891930     -0.011282371028      0.000405005471
   12       0.002528882564     -0.011253496180     -0.000460231764

 cartesian coordinates (angstrom) at end:
    1      0.00000000000000     0.00000376860924     0.00000000000000
    2      0.00000000000000     2.53778776860924     2.53778400000000
    3      2.53778400000000     0.00000376860924     2.53778400000000
    4      2.53778400000000     2.53778776860924     0.00000000000000
    5      1.21161146162436     1.19237532537168     3.55439542549464
    6      1.21161146162436     3.73015932537168     4.05895657450536
    7      1.32617253837564     3.73015932537168     1.52117257450536
    8      1.32617253837564     1.19237532537168     1.01661142549464
    9      3.86395653837564     1.19237532537168     1.52117257450536
   10      3.86395653837564     3.73015932537168     1.01661142549464
   11      3.74939546162436     3.73015932537168     3.55439542549464
   12      3.74939546162436     1.19237532537168     4.05895657450536

 cartesian forces (hartree/bohr) at end:
    1     -0.00000000000000    -0.00235653445392     0.00000000000000
    2     -0.00000000000000    -0.00234762080476     0.00000000000000
    3     -0.00000000000000    -0.00235562005204     0.00000000000000
    4     -0.00000000000000    -0.00234854477938     0.00000000000000
    5     -0.00025129753205     0.00117741323426    -0.00004079950168
    6     -0.00025956895615     0.00117676967726     0.00004667603339
    7      0.00026282744215     0.00117649380829     0.00004222574980
    8      0.00026366054327     0.00117348332524    -0.00004798362668
    9      0.00025129753205     0.00117741323426     0.00004079950168
   10      0.00025956895615     0.00117676967726    -0.00004667603339
   11     -0.00026282744215     0.00117649380829    -0.00004222574980
   12     -0.00026366054327     0.00117348332524     0.00004798362668
 frms,max,avg= 9.6821523E-04 2.3565345E-03   0.000E+00 -1.972E-07  0.000E+00 h/b

 cartesian forces (eV/Angstrom) at end:
    1     -0.00000000000000    -0.12117786360420     0.00000000000000
    2     -0.00000000000000    -0.12071950537400     0.00000000000000
    3     -0.00000000000000    -0.12113084317272     0.00000000000000
    4     -0.00000000000000    -0.12076701805521     0.00000000000000
    5     -0.01292223757317     0.06054501773562    -0.00209799455352
    6     -0.01334757126585     0.06051192470661     0.00240017793846
    7      0.01351512933876     0.06049773895517     0.00217133517466
    8      0.01355796911753     0.06034293370567    -0.00246741708335
    9      0.01292223757317     0.06054501773562     0.00209799455352
   10      0.01334757126585     0.06051192470661    -0.00240017793846
   11     -0.01351512933876     0.06049773895517    -0.00217133517466
   12     -0.01355796911753     0.06034293370567     0.00246741708335
 frms,max,avg= 4.9787625E-02 1.2117786E-01   0.000E+00 -1.014E-05  0.000E+00 e/A
 length scales=  9.591433488838  9.591433488838  9.591433488838 bohr
              =  5.075568000000  5.075568000000  5.075568000000 angstroms
 prteigrs : about to open file o_EIG
 Fermi (or HOMO) energy (hartree) =   0.27677   Average Vxc (hartree)=  -0.44596
 Eigenvalues (hartree) for nkpt= 112  k points:
 kpt#   1, nband= 50, wtk=  0.00463, kpt=  0.0000  0.0000  0.0000 (reduced coord)
  -1.94326   -1.94260   -1.94257   -1.94257   -0.80509   -0.80502   -0.80472   -0.79356
  -0.79291   -0.79257   -0.79200   -0.79145   -0.79128   -0.78823   -0.78675   -0.78673
  -0.39517   -0.33821   -0.32964   -0.32881   -0.31889   -0.31631   -0.31562   -0.29808
   0.06053    0.06074    0.07207    0.09597    0.10306    0.10370    0.16118    0.16381
   0.16653    0.16907    0.17221    0.17224    0.21975    0.22407    0.22497    0.22905
   0.24546    0.25305    0.25363    0.25424    0.25479    0.26585    0.26880    0.27517
   0.44528    0.44592
 prteigrs : prtvol=0 or 1, do not print more k-points.

--- !EnergyTerms
iteration_state     : {dtset: 1, }
comment             : Components of total free energy in Hartree
kinetic             :  1.46227963754699E+02
hartree             :  5.59846311771346E+01
xc                  : -9.09120402832145E+01
Ewald energy        : -2.70085975968065E+02
psp_core            :  1.49595106529080E+01
local_psp           : -2.05690414854128E+02
non_local_psp       : -9.11740439312172E+00
total_energy        : -3.58633729913788E+02
total_energy_eV     : -9.75892008982764E+03
band_energy         : -3.11094407248145E+01
...

 Cartesian components of stress tensor (hartree/bohr^3)
  sigma(1 1)= -1.85647674E-04  sigma(3 2)=  0.00000000E+00
  sigma(2 2)= -1.90752486E-04  sigma(3 1)= -3.11299396E-09
  sigma(3 3)= -4.85738114E-04  sigma(2 1)=  0.00000000E+00

-Cartesian components of stress tensor (GPa)         [Pressure=  8.4550E+00 GPa]
- sigma(1 1)= -5.46194221E+00  sigma(3 2)=  0.00000000E+00
- sigma(2 2)= -5.61213094E+00  sigma(3 1)= -9.15874290E-05
- sigma(3 3)= -1.42909063E+01  sigma(2 1)=  0.00000000E+00

== END DATASET(S) ==============================================================

 -outvars: echo values of variables after computation  --------
            acell      9.5914334888E+00  9.5914334888E+00  9.5914334888E+00 Bohr
              amu      1.78490000E+02  1.59994000E+01
          chkprim           0
             ecut      2.50000000E+01 Hartree
           ecutsm      5.00000000E-01 Hartree
           etotal     -3.5863372991E+02
            fcart     -9.0350181040E-21 -2.3565344539E-03  0.0000000000E+00
                      -9.0350181040E-21 -2.3476208048E-03  0.0000000000E+00
                      -9.0350181040E-21 -2.3556200520E-03  0.0000000000E+00
                      -9.0350181040E-21 -2.3485447794E-03  0.0000000000E+00
                      -2.5129753205E-04  1.1774132343E-03 -4.0799501678E-05
                      -2.5956895615E-04  1.1767696773E-03  4.6676033388E-05
                       2.6282744215E-04  1.1764938083E-03  4.2225749802E-05
                       2.6366054327E-04  1.1734833252E-03 -4.7983626680E-05
                       2.5129753205E-04  1.1774132343E-03  4.0799501678E-05
                       2.5956895615E-04  1.1767696773E-03 -4.6676033388E-05
                      -2.6282744215E-04  1.1764938083E-03 -4.2225749802E-05
                      -2.6366054327E-04  1.1734833252E-03  4.7983626680E-05
-          fftalg         512
           istwfk        2    0    0    3    0    0    0    0    0    0
                         0    0    0    0    0    0    6    0    0    7
                         0    0    0    0    0    0    0    0    0    0
                         0    0    0    0    0    0    0    0    0    0
                         0    0    0    0    0    0    0    0    0    0
                       outvar_i_n : Printing only first  50 k-points.
              ixc          11
              kpt      0.00000000E+00  0.00000000E+00  0.00000000E+00
                       1.66666667E-01  0.00000000E+00  0.00000000E+00
                       3.33333333E-01  0.00000000E+00  0.00000000E+00
                       5.00000000E-01  0.00000000E+00  0.00000000E+00
                       0.00000000E+00  1.66666667E-01  0.00000000E+00
                       1.66666667E-01  1.66666667E-01  0.00000000E+00
                       3.33333333E-01  1.66666667E-01  0.00000000E+00
                       5.00000000E-01  1.66666667E-01  0.00000000E+00
                      -3.33333333E-01  1.66666667E-01  0.00000000E+00
                      -1.66666667E-01  1.66666667E-01  0.00000000E+00
                       0.00000000E+00  3.33333333E-01  0.00000000E+00
                       1.66666667E-01  3.33333333E-01  0.00000000E+00
                       3.33333333E-01  3.33333333E-01  0.00000000E+00
                       5.00000000E-01  3.33333333E-01  0.00000000E+00
                      -3.33333333E-01  3.33333333E-01  0.00000000E+00
                      -1.66666667E-01  3.33333333E-01  0.00000000E+00
                       0.00000000E+00  5.00000000E-01  0.00000000E+00
                       1.66666667E-01  5.00000000E-01  0.00000000E+00
                       3.33333333E-01  5.00000000E-01  0.00000000E+00
                       5.00000000E-01  5.00000000E-01  0.00000000E+00
                       0.00000000E+00  0.00000000E+00  1.66666667E-01
                       1.66666667E-01  0.00000000E+00  1.66666667E-01
                       3.33333333E-01  0.00000000E+00  1.66666667E-01
                       5.00000000E-01  0.00000000E+00  1.66666667E-01
                      -3.33333333E-01  0.00000000E+00  1.66666667E-01
                      -1.66666667E-01  0.00000000E+00  1.66666667E-01
                       0.00000000E+00  1.66666667E-01  1.66666667E-01
                       1.66666667E-01  1.66666667E-01  1.66666667E-01
                       3.33333333E-01  1.66666667E-01  1.66666667E-01
                       5.00000000E-01  1.66666667E-01  1.66666667E-01
                      -3.33333333E-01  1.66666667E-01  1.66666667E-01
                      -1.66666667E-01  1.66666667E-01  1.66666667E-01
                       0.00000000E+00  3.33333333E-01  1.66666667E-01
                       1.66666667E-01  3.33333333E-01  1.66666667E-01
                       3.33333333E-01  3.33333333E-01  1.66666667E-01
                       5.00000000E-01  3.33333333E-01  1.66666667E-01
                      -3.33333333E-01  3.33333333E-01  1.66666667E-01
                      -1.66666667E-01  3.33333333E-01  1.66666667E-01
                       0.00000000E+00  5.00000000E-01  1.66666667E-01
                       1.66666667E-01  5.00000000E-01  1.66666667E-01
                       3.33333333E-01  5.00000000E-01  1.66666667E-01
                       5.00000000E-01  5.00000000E-01  1.66666667E-01
                      -3.33333333E-01  5.00000000E-01  1.66666667E-01
                      -1.66666667E-01  5.00000000E-01  1.66666667E-01
                       0.00000000E+00 -3.33333333E-01  1.66666667E-01
                       1.66666667E-01 -3.33333333E-01  1.66666667E-01
                       3.33333333E-01 -3.33333333E-01  1.66666667E-01
                       5.00000000E-01 -3.33333333E-01  1.66666667E-01
                      -3.33333333E-01 -3.33333333E-01  1.66666667E-01
                      -1.66666667E-01 -3.33333333E-01  1.66666667E-01
                       outvar_i_n : Printing only first  50 k-points.
           kptopt           2
         kptrlatt        6    0    0      0    6    0      0    0    6
          kptrlen      5.75486009E+01
P           mkmem           4
            natom          12
            nband          50
            ngfft          45      45      45
             nkpt         112
            nstep         100
             nsym           2
           ntypat           2
              occ      2.000000  2.000000  2.000000  2.000000  2.000000  2.000000
                       2.000000  2.000000  2.000000  2.000000  2.000000  2.000000
                       2.000000  2.000000  2.000000  2.000000  2.000000  2.000000
                       2.000000  2.000000  2.000000  2.000000  2.000000  2.000000
                       2.000000  2.000000  2.000000  2.000000  2.000000  2.000000
                       2.000000  2.000000  2.000000  2.000000  2.000000  2.000000
                       2.000000  2.000000  2.000000  2.000000  2.000000  2.000000
                       2.000000  2.000000  2.000000  2.000000  2.000000  2.000000
                       0.000000  0.000000
        pawecutdg      2.50000000E+01 Hartree
         pawxcdev           0
           strten     -1.8564767362E-04 -1.9075248562E-04 -4.8573811365E-04
                       0.0000000000E+00 -3.1129939619E-09  0.0000000000E+00
        symmorphi           0
           symrel      1  0  0   0  1  0   0  0  1      -1  0  0   0  1  0   0  0 -1
           tolmxf      1.00000000E-05
           tolvrs      1.00000000E-18
           tsmear      4.00000000E-02 Hartree
            typat      1  1  1  1  2  2  2  2  2  2  2  2
              wtk        0.00463    0.00926    0.00926    0.00463    0.00926    0.00926
                         0.00926    0.00926    0.00926    0.00926    0.00926    0.00926
                         0.00926    0.00926    0.00926    0.00926    0.00463    0.00926
                         0.00926    0.00463    0.00926    0.00926    0.00926    0.00926
                         0.00926    0.00926    0.00926    0.00926    0.00926    0.00926
                         0.00926    0.00926    0.00926    0.00926    0.00926    0.00926
                         0.00926    0.00926    0.00926    0.00926    0.00926    0.00926
                         0.00926    0.00926    0.00926    0.00926    0.00926    0.00926
                         0.00926    0.00926
                       outvars : Printing only first  50 k-points.
           xangst      0.0000000000E+00  3.7686092400E-06  0.0000000000E+00
                       0.0000000000E+00  2.5377877686E+00  2.5377840000E+00
                       2.5377840000E+00  3.7686092400E-06  2.5377840000E+00
                       2.5377840000E+00  2.5377877686E+00  0.0000000000E+00
                       1.2116114616E+00  1.1923753254E+00  3.5543954255E+00
                       1.2116114616E+00  3.7301593254E+00  4.0589565745E+00
                       1.3261725384E+00  3.7301593254E+00  1.5211725745E+00
                       1.3261725384E+00  1.1923753254E+00  1.0166114255E+00
                       3.8639565384E+00  1.1923753254E+00  1.5211725745E+00
                       3.8639565384E+00  3.7301593254E+00  1.0166114255E+00
                       3.7493954616E+00  3.7301593254E+00  3.5543954255E+00
                       3.7493954616E+00  1.1923753254E+00  4.0589565745E+00
            xcart      0.0000000000E+00  7.1216393654E-06  0.0000000000E+00
                       0.0000000000E+00  4.7957238661E+00  4.7957167444E+00
                       4.7957167444E+00  7.1216393654E-06  4.7957167444E+00
                       4.7957167444E+00  4.7957238661E+00  0.0000000000E+00
                       2.2896138419E+00  2.2532628126E+00  6.7168339222E+00
                       2.2896138419E+00  7.0489795570E+00  7.6703163111E+00
                       2.5061029025E+00  7.0489795570E+00  2.8745995667E+00
                       2.5061029025E+00  2.2532628126E+00  1.9211171777E+00
                       7.3018196469E+00  2.2532628126E+00  2.8745995667E+00
                       7.3018196469E+00  7.0489795570E+00  1.9211171777E+00
                       7.0853305864E+00  7.0489795570E+00  6.7168339222E+00
                       7.0853305864E+00  2.2532628126E+00  7.6703163111E+00
             xred      0.0000000000E+00  7.4249999999E-07  0.0000000000E+00
                       0.0000000000E+00  5.0000074250E-01  5.0000000000E-01
                       5.0000000000E-01  7.4249999999E-07  5.0000000000E-01
                       5.0000000000E-01  5.0000074250E-01  0.0000000000E+00
                       2.3871445750E-01  2.3492451000E-01  7.0029510500E-01
                       2.3871445750E-01  7.3492451000E-01  7.9970489500E-01
                       2.6128554250E-01  7.3492451000E-01  2.9970489500E-01
                       2.6128554250E-01  2.3492451000E-01  2.0029510500E-01
                       7.6128554250E-01  2.3492451000E-01  2.9970489500E-01
                       7.6128554250E-01  7.3492451000E-01  2.0029510500E-01
                       7.3871445750E-01  7.3492451000E-01  7.0029510500E-01
                       7.3871445750E-01  2.3492451000E-01  7.9970489500E-01
            znucl       72.00000    8.00000

- Timing analysis has been suppressed with timopt=0

 Suggested references for the acknowledgment of ABINIT usage.

 Calculation completed.
.Delivered   0 WARNINGs and   0 COMMENTs to log file.