 vasp.5.4.4.18Apr17-6-g9f103f2a35 (build May 01 2019 17:50:46) complex

 executed on             LinuxIFC date 2021.07.28  07:28:54

 INCAR:
 POTCAR:    PAW Hf 21Jan2003
 POTCAR:    PAW O 22Mar2012
 POTCAR:    PAW Hf 21Jan2003
   VRHFIN =Hf: 6s6d

   TITEL  = PAW Hf 21Jan2003
   POMASS =  178.490; ZVAL   =    4.000    mass and valenz
   ENMAX  =  220.431; ENMIN  =  165.323 eV

 POTCAR:    PAW O 22Mar2012
   VRHFIN =O: s2p4

   TITEL  = PAW O 22Mar2012
   POMASS =   16.000; ZVAL   =    6.000    mass and valenz
   ENMAX  =  400.000; ENMIN  =  300.000 eV

  PAW Hf 21Jan2003                      :
  PAW O 22Mar2012                       :

 POSCAR: HfO2
  positions in direct lattice
 exchange correlation table for  LEXCH =        2
   RHO(1)=    0.500       N(1)  =     2000
   RHO(2)=  100.500       N(2)  =     4000

 ion  position               nearest neighbor table
   1  0.000  0.000  0.000-  12 1.74   6 2.01   7 2.09  10 2.11   8 2.33   5 2.41   9 2.47  11 2.74
                             4 3.59   2 3.59   3 3.59   2 3.59   3 3.59   2 3.59   4 3.59   2 3.59
   2  0.000  0.500  0.500-  11 1.74   5 2.01   8 2.09   9 2.11   7 2.33   6 2.41  10 2.47  12 2.74
                             4 3.59   1 3.59   3 3.59   1 3.59   4 3.59   1 3.59   3 3.59   1 3.59
   3  0.500  0.000  0.500-   9 1.74   7 2.01   6 2.09  11 2.11   5 2.33   8 2.41  12 2.47  10 2.74
                             4 3.59   1 3.59   2 3.59   1 3.59   4 3.59   2 3.59   4 3.59   4 3.59
   4  0.500  0.500  0.000-  10 1.74   8 2.01   5 2.09  12 2.11   6 2.33   7 2.41  11 2.47   9 2.74
                             3 3.59   1 3.59   2 3.59   2 3.59   3 3.59   1 3.59   3 3.59   3 3.59
   5  0.250  0.305  0.737-   2 2.01   4 2.09   3 2.33   1 2.41
   6  0.250  0.805  0.763-   1 2.01   3 2.09   4 2.33   2 2.41
   7  0.250  0.805  0.263-   3 2.01   1 2.09   2 2.33   4 2.41
   8  0.250  0.305  0.237-   4 2.01   2 2.09   1 2.33   3 2.41
   9  0.750  0.195  0.370-   3 1.74   2 2.11   1 2.47   4 2.74
  10  0.750  0.695  0.130-   4 1.74   1 2.11   2 2.47   3 2.74
  11  0.750  0.695  0.630-   2 1.74   3 2.11   4 2.47   1 2.74
  12  0.750  0.195  0.870-   1 1.74   4 2.11   3 2.47   2 2.74

  LATTYP: Found a simple cubic cell.
 ALAT       =     5.0755680000

  Lattice vectors:

 A1 = (   5.0755680000,   0.0000000000,   0.0000000000)
 A2 = (   0.0000000000,   5.0755680000,   0.0000000000)
 A3 = (   0.0000000000,   0.0000000000,   5.0755680000)

Analysis of symmetry for initial positions (statically):
 Subroutine PRICEL returns:
 Original cell was already a primitive cell.

 Routine SETGRP: Setting up the symmetry group for a
 simple cubic supercell.

 Subroutine GETGRP returns: Found  4 space group operations
 (whereof  1 operations were pure point group operations)
 out of a pool of 48 trial point group operations.

The static configuration has the point symmetry C_1 .
 The point group associated with its full space group is C_2v.

Analysis of symmetry for dynamics (positions and initial velocities):
 Subroutine PRICEL returns:
 Original cell was already a primitive cell.

 Routine SETGRP: Setting up the symmetry group for a
 simple cubic supercell.

 Subroutine GETGRP returns: Found  4 space group operations
 (whereof  1 operations were pure point group operations)
 out of a pool of 48 trial point group operations.

The dynamic configuration has the point symmetry C_1 .
 The point group associated with its full space group is C_2v.

 Subroutine INISYM returns: Found  4 space group operations
 (whereof  1 operations are pure point group operations),
 and found     1 'primitive' translations

 KPOINTS: AUTO GRID

Automatic generation of k-mesh.
Space group operators:
 irot       det(A)        alpha          n_x          n_y          n_z        tau_x        tau_y        tau_z
    1     1.000000     0.000000     1.000000     0.000000     0.000000     0.000000     0.000000     0.000000
    2    -1.000000   180.000000     0.000000     0.000000     1.000000     0.000000     0.500000     0.500000
    3    -1.000000   180.000000     1.000000     0.000000     0.000000     0.500000     0.000000     0.500000
    4     1.000000   180.000000     0.000000     1.000000     0.000000     0.500000     0.500000     0.000000

 Subroutine IBZKPT returns following result:

 Found     27 irreducible k-points:

 Following reciprocal coordinates:
            Coordinates               Weight
  0.000000  0.000000  0.000000      1.000000
  0.250000  0.000000  0.000000      2.000000
  0.500000  0.000000  0.000000      1.000000
  0.000000  0.250000  0.000000      2.000000
  0.250000  0.250000  0.000000      4.000000
  0.500000  0.250000  0.000000      2.000000
  0.000000  0.500000  0.000000      1.000000
  0.250000  0.500000  0.000000      2.000000
  0.500000  0.500000  0.000000      1.000000
  0.000000  0.000000  0.250000      2.000000
  0.250000  0.000000  0.250000      4.000000
  0.500000  0.000000  0.250000      2.000000
  0.000000  0.250000  0.250000      4.000000
  0.250000  0.250000  0.250000      8.000000
  0.500000  0.250000  0.250000      4.000000
  0.000000  0.500000  0.250000      2.000000
  0.250000  0.500000  0.250000      4.000000
  0.500000  0.500000  0.250000      2.000000
  0.000000  0.000000  0.500000      1.000000
  0.250000  0.000000  0.500000      2.000000
  0.500000  0.000000  0.500000      1.000000
  0.000000  0.250000  0.500000      2.000000
  0.250000  0.250000  0.500000      4.000000
  0.500000  0.250000  0.500000      2.000000
  0.000000  0.500000  0.500000      1.000000
  0.250000  0.500000  0.500000      2.000000
  0.500000  0.500000  0.500000      1.000000

 Following cartesian coordinates:
            Coordinates               Weight
  0.000000  0.000000  0.000000      1.000000
  0.049256  0.000000  0.000000      2.000000
  0.098511  0.000000  0.000000      1.000000
  0.000000  0.049256  0.000000      2.000000
  0.049256  0.049256  0.000000      4.000000
  0.098511  0.049256  0.000000      2.000000
  0.000000  0.098511  0.000000      1.000000
  0.049256  0.098511  0.000000      2.000000
  0.098511  0.098511  0.000000      1.000000
  0.000000  0.000000  0.049256      2.000000
  0.049256  0.000000  0.049256      4.000000
  0.098511  0.000000  0.049256      2.000000
  0.000000  0.049256  0.049256      4.000000
  0.049256  0.049256  0.049256      8.000000
  0.098511  0.049256  0.049256      4.000000
  0.000000  0.098511  0.049256      2.000000
  0.049256  0.098511  0.049256      4.000000
  0.098511  0.098511  0.049256      2.000000
  0.000000  0.000000  0.098511      1.000000
  0.049256  0.000000  0.098511      2.000000
  0.098511  0.000000  0.098511      1.000000
  0.000000  0.049256  0.098511      2.000000
  0.049256  0.049256  0.098511      4.000000
  0.098511  0.049256  0.098511      2.000000
  0.000000  0.098511  0.098511      1.000000
  0.049256  0.098511  0.098511      2.000000
  0.098511  0.098511  0.098511      1.000000

 SYSTEM =  MoSe2
 POSCAR =  HfO2

 Startparameter for this run:
   NWRITE =      2    write-flag & timer
   PREC   = accura    normal or accurate (medium, high low for compatibility)
   ISTART =      0    job   : 0-new  1-cont  2-samecut
   ICHARG =      2    charge: 1-file 2-atom 10-const
   ISPIN  =      1    spin polarized calculation?
   LNONCOLLINEAR =      F non collinear calculations
   LSORBIT =      F    spin-orbit coupling
   INIWAV =      1    electr: 0-lowe 1-rand  2-diag
   LASPH  =      F    aspherical Exc in radial PAW
   METAGGA=      F    non-selfconsistent MetaGGA calc.

 Electronic Relaxation 1
   ENCUT  =  500.0 eV  36.75 Ry    6.06 a.u.   9.25  9.25  9.25*2*pi/ulx,y,z
   ENINI  =  500.0     initial cutoff
   ENAUG  =  605.4 eV  augmentation charge cutoff
   NELM   =    120;   NELMIN=  2; NELMDL=-12     # of ELM steps
   EDIFF  = 0.1E-04   stopping-criterion for ELM
   LREAL  =      F    real-space projection
   NLSPLINE    = F    spline interpolate recip. space projectors
   LCOMPAT=      F    compatible to vasp.4.4
   GGA_COMPAT  = T    GGA compatible to vasp.4.4-vasp.4.6
   LMAXPAW     = -100 max onsite density
   LMAXMIX     =    2 max onsite mixed and CHGCAR
   VOSKOWN=      0    Vosko Wilk Nusair interpolation
   ROPT   =    0.00000   0.00000
 Ionic relaxation
   EDIFFG = -.1E-01   stopping-criterion for IOM
   NSW    =    800    number of steps for IOM
   NBLOCK =      1;   KBLOCK =    800    inner block; outer block
   IBRION =      2    ionic relax: 0-MD 1-quasi-New 2-CG
   NFREE  =      1    steps in history (QN), initial steepest desc. (CG)
   ISIF   =      2    stress and relaxation
   IWAVPR =     11    prediction:  0-non 1-charg 2-wave 3-comb
   ISYM   =      2    0-nonsym 1-usesym 2-fastsym
   LCORR  =      T    Harris-Foulkes like correction to forces

   POTIM  = 0.3000    time-step for ionic-motion
   TEIN   =    0.0    initial temperature
   TEBEG  =    0.0;   TEEND  =   0.0 temperature during run
   SMASS  =  -3.00    Nose mass-parameter (am)
   estimated Nose-frequenzy (Omega)   =  0.10E-29 period in steps =****** mass=  -0.589E-27a.u.
   SCALEE = 1.0000    scale energy and forces
   NPACO  =    256;   APACO  = 16.0  distance and # of slots for P.C.
   PSTRESS=    0.0 pullay stress

  Mass of Ions in am
   POMASS = 178.49 16.00
  Ionic Valenz
   ZVAL   =   4.00  6.00
  Atomic Wigner-Seitz radii
  virtual crystal weights
   VCA    =   1.00  1.00
   NELECT =      64.0000    total number of electrons
   NUPDOWN=      -1.0000    fix difference up-down

 DOS related values:
   EMIN   =  10.00;   EMAX   =-10.00  energy-range for DOS
   EFERMI =   0.00
   ISMEAR =     0;   SIGMA  =   0.05  broadening in eV -4-tet -1-fermi 0-gaus

 Electronic relaxation 2 (details)
   IALGO  =     48    algorithm
   LDIAG  =      T    sub-space diagonalisation (order eigenvalues)
   LSUBROT=      F    optimize rotation matrix (better conditioning)
   TURBO    =      0    0=normal 1=particle mesh
   IRESTART =      0    0=no restart 2=restart with 2 vectors
   NREBOOT  =      0    no. of reboots
   NMIN     =      0    reboot dimension
   EREF     =   0.00    reference energy to select bands
   IMIX   =      4    mixing-type and parameters
     AMIX     =   0.40;   BMIX     =  1.00
     AMIX_MAG =   1.60;   BMIX_MAG =  1.00
     AMIN     =   0.01
     WC   =   100.;   INIMIX=   1;  MIXPRE=   1;  MAXMIX= -45

 Intra band minimization:
   WEIMIN = 0.0010     energy-eigenvalue tresh-hold
   EBREAK =  0.60E-07  absolut break condition
   DEPER  =   0.30     relativ break condition

   TIME   =   0.40     timestep for ELM

  volume/ion in A,a.u.               =      10.90        73.53
  Fermi-wavevector in a.u.,A,eV,Ry     =   1.290180  2.438086 22.647760  1.664563
  Thomas-Fermi vector in A             =   2.422027

 Write flags
   LWAVE        =      F    write WAVECAR
   LDOWNSAMPLE  =      F    k-point downsampling of WAVECAR
   LCHARG       =      F    write CHGCAR
   LVTOT        =      F    write LOCPOT, total local potential
   LVHAR        =      F    write LOCPOT, Hartree potential only
   LELF         =      F    write electronic localiz. function (ELF)
   LORBIT       =      0    0 simple, 1 ext, 2 COOP (PROOUT), +10 PAW based schemes

 Dipole corrections
[...]
  Kinetic  1181.20986  1193.50969  1220.94386    -0.54011    -0.14840    -0.35171
  Fock        0.00000     0.00000     0.00000     0.00000     0.00000     0.00000
  Total      16.38050     9.62757    14.64731     0.00000     0.00000     0.00000
  in kB     200.71681   117.97041   179.47934     0.00000     0.00000     0.00000

 VOLUME and BASIS-vectors are now :
  energy-cutoff  :      500.00
  volume of cell :      130.75
      direct lattice vectors                 reciprocal lattice vectors
     5.075568000  0.000000000  0.000000000     0.197022284  0.000000000  0.000000000
     0.000000000  5.075568000  0.000000000     0.000000000  0.197022284  0.000000000
     0.000000000  0.000000000  5.075568000     0.000000000  0.000000000  0.197022284

[...]

 FORCES acting on ions
    electron-ion (+dipol)            ewald-force                    non-local-force                 convergence-correction
   -.136E+02 0.438E+01 -.117E+02   0.149E+02 -.518E+01 0.115E+02   0.455E+01 -.146E+01 0.299E+01   0.185E-02 -.571E-04 -.736E-04
   -.136E+02 0.438E+01 0.117E+02   0.149E+02 -.518E+01 -.115E+02   0.455E+01 -.146E+01 -.299E+01   0.185E-02 -.571E-04 0.736E-04
   0.136E+02 0.438E+01 -.117E+02   -.149E+02 -.518E+01 0.115E+02   -.455E+01 -.146E+01 0.299E+01   -.185E-02 -.571E-04 -.736E-04
   0.136E+02 0.438E+01 0.117E+02   -.149E+02 -.518E+01 -.115E+02   -.455E+01 -.146E+01 -.299E+01   -.185E-02 -.571E-04 0.736E-04
   -.174E+01 0.471E+01 0.318E+01   0.300E+01 -.793E+01 -.412E+00   -.129E+01 0.158E+01 -.363E+01   -.472E-03 0.137E-02 0.195E-03
   -.174E+01 0.471E+01 -.318E+01   0.300E+01 -.793E+01 0.412E+00   -.129E+01 0.158E+01 0.363E+01   -.472E-03 0.137E-02 -.195E-03
   0.174E+01 0.471E+01 -.318E+01   -.300E+01 -.793E+01 0.412E+00   0.129E+01 0.158E+01 0.363E+01   0.472E-03 0.137E-02 -.195E-03
   0.174E+01 0.471E+01 0.318E+01   -.300E+01 -.793E+01 -.412E+00   0.129E+01 0.158E+01 -.363E+01   0.472E-03 0.137E-02 0.195E-03
   -.181E+02 -.733E+01 0.891E+01   0.265E+02 0.131E+02 -.162E+02   -.311E+01 -.188E+01 0.432E+01   -.144E-02 -.728E-03 0.114E-02
   -.181E+02 -.733E+01 -.891E+01   0.265E+02 0.131E+02 0.162E+02   -.311E+01 -.188E+01 -.432E+01   -.144E-02 -.728E-03 -.114E-02
   0.181E+02 -.733E+01 -.891E+01   -.265E+02 0.131E+02 0.162E+02   0.311E+01 -.188E+01 -.432E+01   0.144E-02 -.728E-03 -.114E-02
   0.181E+02 -.733E+01 0.891E+01   -.265E+02 0.131E+02 -.162E+02   0.311E+01 -.188E+01 0.432E+01   0.144E-02 -.728E-03 0.114E-02
   -.355E-11 0.707E+01 0.665E-07   0.355E-14 0.124E-13 0.711E-14   0.000E+00 -.707E+01 -.888E-15   -.613E-13 0.232E-02 -.402E-13

 POSITION                                       TOTAL-FORCE (eV/Angst)
      0.00000      0.00000      0.00000         5.921315     -2.258593      2.733937
      0.00000      2.53778      2.53778         5.921315     -2.258593     -2.733937
      2.53778      0.00000      2.53778        -5.921315     -2.258593      2.733937
      2.53778      2.53778      0.00000        -5.921315     -2.258593     -2.733937
      1.26889      1.54590      3.73898        -0.029195     -1.636500     -0.865133
      1.26889      4.08369      3.87438        -0.029195     -1.636500      0.865133
      1.26889      4.08369      1.33659         0.029195     -1.636500      0.865133
      1.26889      1.54590      1.20119         0.029195     -1.636500     -0.865133
      3.80668      0.99188      1.87560         5.349042      3.895093     -2.951615
      3.80668      3.52966      0.66219         5.349042      3.895093      2.951615
      3.80668      3.52966      3.19997        -5.349042      3.895093      2.951615
      3.80668      0.99188      4.41338        -5.349042      3.895093     -2.951615
    total drift:                               -0.000000      0.000500      0.000000

  FREE ENERGIE OF THE ION-ELECTRON SYSTEM (eV)
  free  energy   TOTEN  =      -127.87414914 eV

  energy  without entropy=     -127.87414914  energy(sigma->0) =     -127.87414914

[...]

 d Force = 0.3620946E+01[-0.475E+01, 0.120E+02]  d Energy = 0.1741198E+01 0.188E+01
 d Force = 0.9137836E+00[-0.428E+02, 0.446E+02]  d Ewald  =-0.2180913E+01 0.309E+01

 Steepest descent step on ions:
 trial-energy change:   -1.741198  1 .order   -3.620946  -11.990548    4.748657
  (g-gl).g = 0.120E+02      g.g   = 0.120E+02  gl.gl    = 0.000E+00
 g(Force)  = 0.120E+02   g(Stress)= 0.000E+00 ortho     = 0.000E+00
 gamma     =   0.00000
 trial     =   1.00000
 opt step  =   0.54952  (harmonic =   0.71632) maximal distance =0.09418612
 next E    =  -130.856762   (d E  =  -2.98261)

[...]

 d Force = 0.1059613E+01[-0.199E-01, 0.214E+01]  d Energy = 0.1179094E+01-0.119E+00
 d Force = 0.1143085E+02[ 0.357E+01, 0.193E+02]  d Ewald  = 0.1165246E+02-0.222E+00

[...]

 d Force = 0.1030527E+01[ 0.623E+00, 0.144E+01]  d Energy = 0.1027185E+01 0.334E-02
 d Force = 0.2747973E+01[ 0.322E+00, 0.517E+01]  d Ewald  = 0.2747084E+01 0.889E-03

 Conjugate gradient step on ions:
 trial-energy change:   -1.027185  1 .order   -1.030527   -1.437817   -0.623236
  (g-gl).g = 0.153E+01      g.g   = 0.157E+01  gl.gl    = 0.120E+02
 g(Force)  = 0.157E+01   g(Stress)= 0.000E+00 ortho     = 0.442E-01
 gamma     =   0.12762
 trial     =   0.90990
 opt step  =   1.63835  (harmonic =   1.60607) maximal distance =0.08686329
 next E    =  -132.069385   (d E  =  -1.27494)

[...]

 d Force = 0.2497552E+00[ 0.562E-03, 0.499E+00]  d Energy = 0.2487639E+00 0.991E-03
 d Force =-0.1280735E+01[-0.282E+01, 0.258E+00]  d Ewald  =-0.1285215E+01 0.448E-02

[...]

 d Force = 0.3121249E-01[-0.879E-03, 0.633E-01]  d Energy = 0.3154032E-01-0.328E-03
 d Force =-0.4989526E-01[-0.240E+00, 0.140E+00]  d Ewald  =-0.4953958E-01-0.356E-03

[...]

 Conjugate gradient step on ions:
 trial-energy change:   -0.137681  1 .order   -0.138133   -0.206453   -0.069813
  (g-gl).g = 0.158E+00      g.g   = 0.185E+00  gl.gl    = 0.747E+00
 g(Force)  = 0.185E+00   g(Stress)= 0.000E+00 ortho     =-0.266E-02
 gamma     =   0.21100
 trial     =   1.12176
 opt step  =   1.71281  (harmonic =   1.69489) maximal distance =0.05131201
 next E    =  -132.760740   (d E  =  -0.15601)

[...]

 d Force = 0.1393520E-01[ 0.790E-02, 0.200E-01]  d Energy = 0.1402866E-01-0.935E-04
 d Force =-0.6345110E-02[-0.405E-01, 0.278E-01]  d Ewald  =-0.6287549E-02-0.576E-04

[...]

 d Force = 0.2490316E-02[ 0.166E-03, 0.481E-02]  d Energy = 0.2499205E-02-0.889E-05
 d Force =-0.3748914E-01[-0.503E-01,-0.247E-01]  d Ewald  =-0.3747547E-01-0.137E-04

[...]

 Conjugate gradient step on ions:
 trial-energy change:   -0.009326  1 .order   -0.009213   -0.009739   -0.008686
  (g-gl).g = 0.471E-01      g.g   = 0.477E-01  gl.gl    = 0.193E-01
 g(Force)  = 0.477E-01   g(Stress)= 0.000E+00 ortho     =-0.844E-03
 gamma     =   2.43872
 trial     =   0.21347
 opt step  =   0.85389  (harmonic =   1.97415) maximal distance =0.03175666
 next E    =  -132.943166   (d E  =  -0.04503)

[...]

 d Force = 0.6708788E-02[-0.125E-02, 0.147E-01]  d Energy = 0.6554642E-02 0.154E-03
 d Force =-0.1246648E+01[-0.120E+01,-0.129E+01]  d Ewald  =-0.1247819E+01 0.117E-02

[...]

 d Force = 0.3498936E-04[-0.404E-05, 0.740E-04]  d Energy = 0.2798253E-04 0.701E-05
 d Force =-0.3160800E-02[-0.327E-02,-0.306E-02]  d Ewald  =-0.3162699E-02 0.190E-05

[...]

 d Force = 0.1766773E-05[ 0.152E-05, 0.201E-05]  d Energy = 0.3222018E-05-0.146E-05
 d Force =-0.8647419E-02[-0.865E-02,-0.865E-02]  d Ewald  =-0.8647419E-02 0.964E-10

[...]

 d Force =-0.1426316E-05[-0.590E-05, 0.305E-05]  d Energy = 0.5506263E-07-0.148E-05
 d Force =-0.1730276E-01[-0.173E-01,-0.173E-01]  d Ewald  =-0.1730276E-01 0.761E-09

[...]

 d Force = 0.1251907E-05[-0.139E-05, 0.389E-05]  d Energy = 0.1024190E-05 0.228E-06
 d Force = 0.1141126E-01[ 0.114E-01, 0.114E-01]  d Ewald  = 0.1141126E-01-0.223E-09

[...]

 eigenvalue-minimisations  :  2268
 total energy-change (2. order) :-0.6886655E-04  (-0.1536796E-02)
 number of electron      63.9999997 magnetization
 augmentation part        6.0220985 magnetization

[...]

 Broyden mixing:
  rms(total) = 0.10070E-02    rms(broyden)= 0.10068E-02
  rms(prec ) = 0.17034E-02
  weight for this iteration     100.00

 eigenvalues of (default mixing * dielectric matrix)
  average eigenvalue GAMMA=   2.0188
  2.0188

[...]

--------------------------------------- Iteration     36(   3)  ---------------------------------------

 eigenvalue-minimisations  :  1348
 total energy-change (2. order) : 0.2479544E-05  (-0.1138439E-05)
 number of electron      63.9999997 magnetization
 augmentation part        6.0221174 magnetization

 Free energy of the ion-electron system (eV)
  alpha Z        PSCENC =       238.81820658
  Ewald energy   TEWEN  =     -3169.13559720
  -Hartree energ DENC   =     -1049.91676517
  -exchange      EXHF   =         0.00000000
  -V(xc)+E(xc)   XCENC  =        28.20297527
  PAW double counting   =      7249.79090116    -7040.20358211
  entropy T*S    EENTRO =        -0.00000000
  eigenvalues    EBANDS =      -150.28619503
  atomic energy  EATOM  =      3759.73604014
  Solvation  Ediel_sol  =         0.00000000
  free energy    TOTEN  =      -132.99401635 eV

  energy without entropy =     -132.99401635  energy(sigma->0) =     -132.99401635

 average (electrostatic) potential at core
  the test charge radii are     1.2481  0.7215
  (the norm of the test charge is              1.0000)
       1 -36.1734       2 -36.1734       3 -36.1734       4 -36.1734       5 -70.9160
       6 -70.9160       7 -70.9160       8 -70.9160       9 -70.4427      10 -70.4427
      11 -70.4427      12 -70.4427

 E-fermi :   4.0952     XC(G=0): -12.0686     alpha+bet :-12.9538

[...]

 k-point    27 :       0.5000    0.5000    0.5000
  band No.  band energies     occupation
      1     -13.1543      2.00000
      2     -13.1543      2.00000
      3     -13.1543      2.00000
      4     -13.1543      2.00000
      5     -12.0703      2.00000
      6     -12.0703      2.00000
      7     -12.0703      2.00000
      8     -12.0703      2.00000
      9      -0.7155      2.00000
     10      -0.7155      2.00000
     11      -0.7155      2.00000
     12      -0.7155      2.00000
     13      -0.2855      2.00000
     14      -0.2855      2.00000
     15      -0.2855      2.00000
     16      -0.2855      2.00000
     17       0.7056      2.00000
     18       0.7056      2.00000
     19       0.7056      2.00000
     20       0.7056      2.00000
     21       1.4948      2.00000
     22       1.4948      2.00000
     23       1.4948      2.00000
     24       1.4948      2.00000
     25       2.1718      2.00000
     26       2.1718      2.00000
     27       2.1718      2.00000
     28       2.1718      2.00000
     29       2.8848      2.00000
     30       2.8848      2.00000
     31       2.8848      2.00000
     32       2.8848      2.00000
     33       8.1845      0.00000
     34       8.1845      0.00000
     35       8.1845      0.00000
     36       8.1845      0.00000
     37       9.5215      0.00000
     38       9.5215      0.00000
     39       9.5215      0.00000
     40       9.5215      0.00000
     41      10.6671      0.00000
     42      10.6671      0.00000

 soft charge-density along one line, spin component           1
         0         1         2         3         4         5         6         7         8         9
 total charge-density along one line

------------------------ aborting loop because EDIFF is reached ----------------------------------------

  FORCE on cell =-STRESS in cart. coord.  units (eV):
  Direction    XX          YY          ZZ          XY          YZ          ZX
  Alpha Z   238.81821   238.81821   238.81821
  Ewald   -1060.44620 -1076.03757 -1032.65712    -0.00000    -0.00000     0.00000
  Hartree   331.89207   334.54655   383.47751    -0.00000    -0.00000    -0.00000
  E(xc)    -308.89525  -307.54855  -307.35759    -0.00000    -0.00000     0.00000
  Local    -308.33632  -293.39508  -391.72298    -0.00000    -0.00000     0.00000
  n-local  -143.88149  -149.36604  -150.25185    -0.15535    -0.07793    -0.14295
  augment    63.75848    64.09768    64.95102     0.00000    -0.00000    -0.00000
  Kinetic  1178.75345  1181.10422  1195.07654    -0.38885    -0.07327    -0.25732
  Fock        0.00000     0.00000     0.00000     0.00000     0.00000     0.00000
  Total      -8.33706    -7.78059     0.33374     0.00000     0.00000     0.00000
  in kB    -102.15728   -95.33863     4.08946     0.00000     0.00000     0.00000

 VOLUME and BASIS-vectors are now :
  energy-cutoff  :      500.00
  volume of cell :      130.75
      direct lattice vectors                 reciprocal lattice vectors
     5.075568000  0.000000000  0.000000000     0.197022284  0.000000000  0.000000000
     0.000000000  5.075568000  0.000000000     0.000000000  0.197022284  0.000000000
     0.000000000  0.000000000  5.075568000     0.000000000  0.000000000  0.197022284

  length of vectors
     5.075568000  5.075568000  5.075568000     0.197022284  0.197022284  0.197022284

 FORCES acting on ions
    electron-ion (+dipol)            ewald-force                    non-local-force                 convergence-correction
   0.870E+01 -.295E+01 0.118E+02   -.971E+01 0.259E+01 -.109E+02   0.102E+01 0.359E+00 -.902E+00   -.505E-03 -.733E-04 -.488E-04
   0.870E+01 -.295E+01 -.118E+02   -.971E+01 0.259E+01 0.109E+02   0.102E+01 0.359E+00 0.902E+00   -.505E-03 -.733E-04 0.488E-04
   -.870E+01 -.295E+01 0.118E+02   0.971E+01 0.259E+01 -.109E+02   -.102E+01 0.359E+00 -.902E+00   0.505E-03 -.733E-04 -.488E-04
   -.870E+01 -.295E+01 -.118E+02   0.971E+01 0.259E+01 0.109E+02   -.102E+01 0.359E+00 0.902E+00   0.505E-03 -.733E-04 0.488E-04
   0.229E+02 -.410E+01 -.910E+00   -.262E+02 0.402E+01 0.216E+01   0.333E+01 0.754E-01 -.126E+01   -.111E-02 0.131E-03 -.186E-02
   0.229E+02 -.410E+01 0.910E+00   -.262E+02 0.402E+01 -.216E+01   0.333E+01 0.754E-01 0.126E+01   -.111E-02 0.131E-03 0.186E-02
   -.229E+02 -.410E+01 0.910E+00   0.262E+02 0.402E+01 -.216E+01   -.333E+01 0.754E-01 0.126E+01   0.111E-02 0.131E-03 0.186E-02
   -.229E+02 -.410E+01 -.910E+00   0.262E+02 0.402E+01 0.216E+01   -.333E+01 0.754E-01 -.126E+01   0.111E-02 0.131E-03 -.186E-02
   0.156E+02 0.596E+01 -.762E+01   -.153E+02 -.661E+01 0.899E+01   -.308E+00 0.653E+00 -.137E+01   -.267E-03 0.595E-03 0.742E-03
   0.156E+02 0.596E+01 0.762E+01   -.153E+02 -.661E+01 -.899E+01   -.308E+00 0.653E+00 0.137E+01   -.267E-03 0.595E-03 -.742E-03
   -.156E+02 0.596E+01 0.762E+01   0.153E+02 -.661E+01 -.899E+01   0.308E+00 0.653E+00 0.137E+01   0.267E-03 0.595E-03 -.742E-03
   -.156E+02 0.596E+01 -.762E+01   0.153E+02 -.661E+01 0.899E+01   0.308E+00 0.653E+00 -.137E+01   0.267E-03 0.595E-03 0.742E-03
   -.410E-13 -.435E+01 -.187E-06   0.355E-13 0.124E-13 -.533E-14   -.555E-15 0.435E+01 -.222E-15   -.514E-12 0.261E-02 0.186E-11

 POSITION                                       TOTAL-FORCE (eV/Angst)
      0.08433      0.18327      0.16182         0.002051     -0.000751      0.001339
      0.08433      2.72105      2.37596         0.002051     -0.000751     -0.001339
      2.45345      0.18327      2.69960        -0.002051     -0.000751      0.001339
      2.45345      2.72105     -0.16182        -0.002051     -0.000751     -0.001339
      1.07964      1.43560      3.73810        -0.002463     -0.003311     -0.006554
      1.07964      3.97338      3.87525        -0.002463     -0.003311      0.006554
      1.45815      3.97338      1.33747         0.002463     -0.003311      0.006554
      1.45815      1.43560      1.20031         0.002463     -0.003311     -0.006554
      4.15699      0.91892      1.85368        -0.001145      0.004062      0.001208
      4.15699      3.45670      0.68411        -0.001145      0.004062     -0.001208
      3.45637      3.45670      3.22189         0.001145      0.004062     -0.001208
      3.45637      0.91892      4.39146         0.001145      0.004062      0.001208
    total drift:                               -0.000000      0.000149     -0.000000

  FREE ENERGIE OF THE ION-ELECTRON SYSTEM (eV)
  free  energy   TOTEN  =      -132.99401635 eV

  energy  without entropy=     -132.99401635  energy(sigma->0) =     -132.99401635

 d Force = 0.4232292E-04[ 0.230E-04, 0.616E-04]  d Energy = 0.4350213E-04-0.118E-05
 d Force = 0.3890486E-01[ 0.387E-01, 0.391E-01]  d Ewald  = 0.3890489E-01-0.260E-07

 Conjugate gradient step on ions:
 trial-energy change:   -0.000044  1 .order   -0.000042   -0.000062   -0.000023
  (g-gl).g = 0.280E-04      g.g   = 0.392E-04  gl.gl    = 0.331E-03
 g(Force)  = 0.392E-04   g(Stress)= 0.000E+00 ortho     = 0.778E-05
 gamma     =   0.08470
 trial     =   1.54551
 opt step  =   2.46533  (harmonic =   2.46533) maximal distance =0.00111284
 next E    =  -132.994022   (d E  =  -0.00005)

 reached required accuracy - stopping structural energy minimisation