.Version 9.4.1 of ABINIT

 ABINIT is a project of the Universite Catholique de Louvain,
 Corning Inc. and other collaborators, see ~abinit/doc/developers/contributors.txt .
 acknowledgments of the ABINIT effort.

.Starting date : Tue 27 Jul 2021.
- ( at 13h52 )

- input  file    -> MODE2_19_21_22total
- output file    -> MODE2_19_21_22total.abo
- root for input  files -> i
- root for output files -> o

 Symmetries : space group Pc a 2_1 (# 29); Bravais oP (primitive ortho.)
     intxc =       0    ionmov =       2      iscf =       7    lmnmax =       8
     lnmax =       8     mgfft =      45  mpssoang =       4    mqgrid =    3001
     natom =      12  nloc_mem =       1    nspden =       1   nspinor =       1
    nsppol =       1      nsym =       4    n1xccc =    2501    ntypat =       2
    occopt =       1   xclevel =       2
-    mband =          50        mffmem =           1         mkmem =           4
       mpw =        5280          nfft =       91125          nkpt =         112
  Rough estimation (10% accuracy) of disk space for files :

------------- Echo of variables that govern the present computation ------------
-
- outvars: echo of selected default values
-   iomode0 =  3 , fftalg0 =512 , wfoptalg0 =  0
-
- outvars: echo of global parameters not present in the input file
-  max_nthreads =    0
-
 -outvars: echo values of preprocessed input variables --------
            acell      9.5914334888E+00  9.5914334888E+00  9.5914334888E+00 Bohr
              amu      1.78490000E+02  1.59994000E+01
          chkprim           0
             ecut      2.50000000E+01 Hartree
           ecutsm      5.00000000E-01 Hartree
-          fftalg         512
           ionmov           2
           istwfk        2    0    0    3    0    0    0    0    0    0
                         0    0    0    0    0    0    6    0    0    7
                         0    0    0    0    0    0    0    0    0    0
                         0    0    0    0    0    0    0    0    0    0
                         0    0    0    0    0    0    0    0    0    0
                       outvar_i_n : Printing only first  50 k-points.
              ixc          11
              kpt      0.00000000E+00  0.00000000E+00  0.00000000E+00
                       1.66666667E-01  0.00000000E+00  0.00000000E+00
                       3.33333333E-01  0.00000000E+00  0.00000000E+00
                       5.00000000E-01  0.00000000E+00  0.00000000E+00
                       0.00000000E+00  1.66666667E-01  0.00000000E+00
                       1.66666667E-01  1.66666667E-01  0.00000000E+00
                       3.33333333E-01  1.66666667E-01  0.00000000E+00
                       5.00000000E-01  1.66666667E-01  0.00000000E+00
                      -3.33333333E-01  1.66666667E-01  0.00000000E+00
                      -1.66666667E-01  1.66666667E-01  0.00000000E+00
                       0.00000000E+00  3.33333333E-01  0.00000000E+00
                       1.66666667E-01  3.33333333E-01  0.00000000E+00
                       3.33333333E-01  3.33333333E-01  0.00000000E+00
                       5.00000000E-01  3.33333333E-01  0.00000000E+00
                      -3.33333333E-01  3.33333333E-01  0.00000000E+00
                      -1.66666667E-01  3.33333333E-01  0.00000000E+00
                       0.00000000E+00  5.00000000E-01  0.00000000E+00
                       1.66666667E-01  5.00000000E-01  0.00000000E+00
                       3.33333333E-01  5.00000000E-01  0.00000000E+00
                       5.00000000E-01  5.00000000E-01  0.00000000E+00
                       0.00000000E+00  0.00000000E+00  1.66666667E-01
                       1.66666667E-01  0.00000000E+00  1.66666667E-01
                       3.33333333E-01  0.00000000E+00  1.66666667E-01
                       5.00000000E-01  0.00000000E+00  1.66666667E-01
                      -3.33333333E-01  0.00000000E+00  1.66666667E-01
                      -1.66666667E-01  0.00000000E+00  1.66666667E-01
                       0.00000000E+00  1.66666667E-01  1.66666667E-01
                       1.66666667E-01  1.66666667E-01  1.66666667E-01
                       3.33333333E-01  1.66666667E-01  1.66666667E-01
                       5.00000000E-01  1.66666667E-01  1.66666667E-01
                      -3.33333333E-01  1.66666667E-01  1.66666667E-01
                      -1.66666667E-01  1.66666667E-01  1.66666667E-01
                       0.00000000E+00  3.33333333E-01  1.66666667E-01
                       1.66666667E-01  3.33333333E-01  1.66666667E-01
                       3.33333333E-01  3.33333333E-01  1.66666667E-01
                       5.00000000E-01  3.33333333E-01  1.66666667E-01
                      -3.33333333E-01  3.33333333E-01  1.66666667E-01
                      -1.66666667E-01  3.33333333E-01  1.66666667E-01
                       0.00000000E+00  5.00000000E-01  1.66666667E-01
                       1.66666667E-01  5.00000000E-01  1.66666667E-01
                       3.33333333E-01  5.00000000E-01  1.66666667E-01
                       5.00000000E-01  5.00000000E-01  1.66666667E-01
                      -3.33333333E-01  5.00000000E-01  1.66666667E-01
                      -1.66666667E-01  5.00000000E-01  1.66666667E-01
                       0.00000000E+00 -3.33333333E-01  1.66666667E-01
                       1.66666667E-01 -3.33333333E-01  1.66666667E-01
                       3.33333333E-01 -3.33333333E-01  1.66666667E-01
                       5.00000000E-01 -3.33333333E-01  1.66666667E-01
                      -3.33333333E-01 -3.33333333E-01  1.66666667E-01
                      -1.66666667E-01 -3.33333333E-01  1.66666667E-01
                       outvar_i_n : Printing only first  50 k-points.
           kptopt           2
         kptrlatt        6    0    0      0    6    0      0    0    6
          kptrlen      5.75486009E+01
P           mkmem           4
            natom          12
            nband          50
            ngfft          45      45      45
             nkpt         112
            nstep         100
             nsym           4
            ntime        1000
           ntypat           2
              occ      2.000000  2.000000  2.000000  2.000000  2.000000  2.000000
                       2.000000  2.000000  2.000000  2.000000  2.000000  2.000000
                       2.000000  2.000000  2.000000  2.000000  2.000000  2.000000
                       2.000000  2.000000  2.000000  2.000000  2.000000  2.000000
                       2.000000  2.000000  2.000000  2.000000  2.000000  2.000000
                       2.000000  2.000000  2.000000  2.000000  2.000000  2.000000
                       2.000000  2.000000  2.000000  2.000000  2.000000  2.000000
                       2.000000  2.000000  2.000000  2.000000  2.000000  2.000000
                       0.000000  0.000000
        pawecutdg      2.50000000E+01 Hartree
         pawxcdev           0
          spgroup          29
           symrel      1  0  0   0  1  0   0  0  1      -1  0  0   0  1  0   0  0 -1
                       1  0  0   0  1  0   0  0 -1      -1  0  0   0  1  0   0  0  1
            tnons      0.0000000  0.0000000  0.0000000     0.5000000  0.5000000  0.0000000
                       0.0000000  0.5000000  0.5000000     0.5000000  0.0000000  0.5000000
           toldfe      1.00000000E-10 Hartree
           tsmear      4.00000000E-02 Hartree
            typat      1  1  1  1  2  2  2  2  2  2  2  2
              wtk        0.00463    0.00926    0.00926    0.00463    0.00926    0.00926
                         0.00926    0.00926    0.00926    0.00926    0.00926    0.00926
                         0.00926    0.00926    0.00926    0.00926    0.00463    0.00926
                         0.00926    0.00463    0.00926    0.00926    0.00926    0.00926
                         0.00926    0.00926    0.00926    0.00926    0.00926    0.00926
                         0.00926    0.00926    0.00926    0.00926    0.00926    0.00926
                         0.00926    0.00926    0.00926    0.00926    0.00926    0.00926
                         0.00926    0.00926    0.00926    0.00926    0.00926    0.00926
                         0.00926    0.00926
                       outvars : Printing only first  50 k-points.
           xangst      0.0000000000E+00  0.0000000000E+00  0.0000000000E+00
                       0.0000000000E+00  2.5377840000E+00  2.5377840000E+00
                       2.5377840000E+00  0.0000000000E+00  2.5377840000E+00
                       2.5377840000E+00  2.5377840000E+00  0.0000000000E+00
                       9.8086488527E-01  1.5459042693E+00  3.7389756885E+00
                       9.8086488527E-01  4.0836882693E+00  3.8743763115E+00
                       1.5569191147E+00  4.0836882693E+00  1.3365923115E+00
                       1.5569191147E+00  1.5459042693E+00  1.2011916885E+00
                       4.0947031147E+00  9.9187973068E-01  1.8755989043E+00
                       4.0947031147E+00  3.5296637307E+00  6.6218509574E-01
                       3.5186488853E+00  3.5296637307E+00  3.1999690957E+00
                       3.5186488853E+00  9.9187973068E-01  4.4133829043E+00
            xcart      0.0000000000E+00  0.0000000000E+00  0.0000000000E+00
                       0.0000000000E+00  4.7957167444E+00  4.7957167444E+00
                       4.7957167444E+00  0.0000000000E+00  4.7957167444E+00
                       4.7957167444E+00  4.7957167444E+00  0.0000000000E+00
                       1.8535660065E+00  2.9213356967E+00  7.0656400688E+00
                       1.8535660065E+00  7.7170524411E+00  7.3215101645E+00
                       2.9421507379E+00  7.7170524411E+00  2.5257934201E+00
                       2.9421507379E+00  2.9213356967E+00  2.2699233244E+00
                       7.7378674823E+00  1.8743810477E+00  3.5443682642E+00
                       7.7378674823E+00  6.6700977922E+00  1.2513484802E+00
                       6.6492827509E+00  6.6700977922E+00  6.0470652247E+00
                       6.6492827509E+00  1.8743810477E+00  8.3400850086E+00
             xred      0.0000000000E+00  0.0000000000E+00  0.0000000000E+00
                       0.0000000000E+00  5.0000000000E-01  5.0000000000E-01
                       5.0000000000E-01  0.0000000000E+00  5.0000000000E-01
                       5.0000000000E-01  5.0000000000E-01  0.0000000000E+00
                       1.9325224000E-01  3.0457759000E-01  7.3666153000E-01
                       1.9325224000E-01  8.0457759000E-01  7.6333847000E-01
                       3.0674776000E-01  8.0457759000E-01  2.6333847000E-01
                       3.0674776000E-01  3.0457759000E-01  2.3666153000E-01
                       8.0674776000E-01  1.9542241000E-01  3.6953478000E-01
                       8.0674776000E-01  6.9542241000E-01  1.3046522000E-01
                       6.9325224000E-01  6.9542241000E-01  6.3046522000E-01
                       6.9325224000E-01  1.9542241000E-01  8.6953478000E-01
            znucl       72.00000    8.00000

 chkinp: Checking input parameters for consistency.

[...]
    2      0.08311951010022     2.73288658504176     2.38255215572484
    3      2.45466448989978     0.19510258504176     2.69301584427516
    4      2.45466448989978     2.73288658504176    -0.15523184427516
    5      1.06138143266611     1.44878250255997     3.73915800351320
    6      1.06138143266611     3.98656650255998     3.87419399648680
    7      1.47640256733389     3.98656650255998     1.33640999648680
    8      1.47640256733389     1.44878250255997     1.20137400351320
    9      4.17664359695330     0.89389891239821     1.87596314774461
   10      4.17664359695330     3.43168291239821     0.66182085225539
   11      3.43670840304670     3.43168291239821     3.19960485225539
   12      3.43670840304670     0.89389891239821     4.41374714774461

 cartesian forces (hartree/bohr) at end:
    1      0.00001641422138    -0.00002027223482     0.00003906471845
    2      0.00001641422138    -0.00002027223482    -0.00003906471845
    3     -0.00001641422138    -0.00002027223482     0.00003906471845
    4     -0.00001641422138    -0.00002027223482    -0.00003906471845
    5      0.00000624801665    -0.00000353676634     0.00000303736744
    6      0.00000624801665    -0.00000353676634    -0.00000303736744
    7     -0.00000624801665    -0.00000353676634    -0.00000303736744
    8     -0.00000624801665    -0.00000353676634     0.00000303736744
    9     -0.00000481495660     0.00002380900116     0.00002980108481
   10     -0.00000481495660     0.00002380900116    -0.00002980108481
   11      0.00000481495660     0.00002380900116    -0.00002980108481
   12      0.00000481495660     0.00002380900116     0.00002980108481
 frms,max,avg= 2.0399813E-05 3.9064718E-05   0.000E+00 -2.737E-07  0.000E+00 h/b

 cartesian forces (eV/Angstrom) at end:
    1      0.00084405312899    -0.00104244014019     0.00200878842094
    2      0.00084405312899    -0.00104244014019    -0.00200878842094
    3     -0.00084405312899    -0.00104244014019     0.00200878842094
    4     -0.00084405312899    -0.00104244014019    -0.00200878842094
    5      0.00032128590686    -0.00018186782223     0.00015618770037
    6      0.00032128590686    -0.00018186782223    -0.00015618770037
    7     -0.00032128590686    -0.00018186782223    -0.00015618770037
    8     -0.00032128590686    -0.00018186782223     0.00015618770037
    9     -0.00024759500279     0.00122430796242     0.00153243326652
   10     -0.00024759500279     0.00122430796242    -0.00153243326652
   11      0.00024759500279     0.00122430796242    -0.00153243326652
   12      0.00024759500279     0.00122430796242     0.00153243326652
 frms,max,avg= 1.0490005E-03 2.0087884E-03   0.000E+00 -1.407E-05  0.000E+00 e/A
 length scales=  9.591433488838  9.591433488838  9.591433488838 bohr
              =  5.075568000000  5.075568000000  5.075568000000 angstroms
 prteigrs : about to open file o_EIG
 Fermi (or HOMO) energy (hartree) =   0.27923   Average Vxc (hartree)=  -0.44623
 Eigenvalues (hartree) for nkpt= 112  k points:
 kpt#   1, nband= 50, wtk=  0.00463, kpt=  0.0000  0.0000  0.0000 (reduced coord)
  -1.94365   -1.94290   -1.94283   -1.94281   -0.80681   -0.80624   -0.80624   -0.79601
  -0.79340   -0.79325   -0.79318   -0.79309   -0.79212   -0.78806   -0.78803   -0.78764
  -0.39868   -0.34532   -0.34127   -0.33598   -0.31908   -0.31090   -0.30980   -0.30944
   0.06812    0.07120    0.07502    0.10044    0.10850    0.10962    0.15924    0.15957
   0.15996    0.16051    0.17657    0.18955    0.19799    0.20533    0.20657    0.21436
   0.22827    0.23049    0.23436    0.23799    0.24523    0.26543    0.27887    0.27923
   0.45775    0.46514
 prteigrs : prtvol=0 or 1, do not print more k-points.

--- !EnergyTerms
iteration_state     : {dtset: 1, itime: 29, icycle: 1, }
comment             : Components of total free energy in Hartree
kinetic             :  1.46302050952306E+02
hartree             :  5.62516085468644E+01
xc                  : -9.09276023476688E+01
Ewald energy        : -2.69582685474683E+02
psp_core            :  1.49595106529080E+01
local_psp           : -2.06521970453039E+02
non_local_psp       : -9.12117921417880E+00
total_energy        : -3.58640267337491E+02
total_energy_eV     : -9.75909798217350E+03
band_energy         : -3.13539775711095E+01
...

 rms coord change=  2.0903E-02   atom, delta coord (reduced):
     1        0.016376395726      0.038439556921      0.030584132510
     2        0.016376395726      0.038439556921     -0.030584132510
     3       -0.016376395726      0.038439556921      0.030584132510
     4       -0.016376395726      0.038439556921     -0.030584132510
     5        0.015863554068     -0.019135152314      0.000035920120
     6        0.015863554068     -0.019135152314     -0.000035920120
     7       -0.015863554068     -0.019135152314     -0.000035920120
     8       -0.015863554068     -0.019135152314      0.000035920120
     9        0.016144100961     -0.019304404607      0.000071764084
    10        0.016144100961     -0.019304404607     -0.000071764084
    11       -0.016144100961     -0.019304404607     -0.000071764084
    12       -0.016144100961     -0.019304404607      0.000071764084

 Cartesian components of stress tensor (hartree/bohr^3)
  sigma(1 1)= -1.99814297E-04  sigma(3 2)=  0.00000000E+00
  sigma(2 2)= -2.21538959E-04  sigma(3 1)=  0.00000000E+00
  sigma(3 3)= -5.61866474E-04  sigma(2 1)=  0.00000000E+00

-Cartesian components of stress tensor (GPa)         [Pressure=  9.6424E+00 GPa]
- sigma(1 1)= -5.87873860E+00  sigma(3 2)=  0.00000000E+00
- sigma(2 2)= -6.51790012E+00  sigma(3 1)=  0.00000000E+00
- sigma(3 3)= -1.65306796E+01  sigma(2 1)=  0.00000000E+00

== END DATASET(S) ==============================================================

 -outvars: echo values of variables after computation  --------
            acell      9.5914334888E+00  9.5914334888E+00  9.5914334888E+00 Bohr
              amu      1.78490000E+02  1.59994000E+01
          chkprim           0
             ecut      2.50000000E+01 Hartree
           ecutsm      5.00000000E-01 Hartree
           etotal     -3.5864026734E+02
            fcart      1.6414221379E-05 -2.0272234824E-05  3.9064718454E-05
                       1.6414221379E-05 -2.0272234824E-05 -3.9064718454E-05
                      -1.6414221379E-05 -2.0272234824E-05  3.9064718454E-05
                      -1.6414221379E-05 -2.0272234824E-05 -3.9064718454E-05
                       6.2480166472E-06 -3.5367663401E-06  3.0373674386E-06
                       6.2480166472E-06 -3.5367663401E-06 -3.0373674386E-06
                      -6.2480166472E-06 -3.5367663401E-06 -3.0373674386E-06
                      -6.2480166472E-06 -3.5367663401E-06  3.0373674386E-06
                      -4.8149566045E-06  2.3809001164E-05  2.9801084814E-05
                      -4.8149566045E-06  2.3809001164E-05 -2.9801084814E-05
                       4.8149566045E-06  2.3809001164E-05 -2.9801084814E-05
                       4.8149566045E-06  2.3809001164E-05  2.9801084814E-05
-          fftalg         512
           ionmov           2
           istwfk        2    0    0    3    0    0    0    0    0    0
                         0    0    0    0    0    0    6    0    0    7
                         0    0    0    0    0    0    0    0    0    0
                         0    0    0    0    0    0    0    0    0    0
                         0    0    0    0    0    0    0    0    0    0
                       outvar_i_n : Printing only first  50 k-points.
              ixc          11
              kpt      0.00000000E+00  0.00000000E+00  0.00000000E+00
                       1.66666667E-01  0.00000000E+00  0.00000000E+00
                       3.33333333E-01  0.00000000E+00  0.00000000E+00
                       5.00000000E-01  0.00000000E+00  0.00000000E+00
                       0.00000000E+00  1.66666667E-01  0.00000000E+00
                       1.66666667E-01  1.66666667E-01  0.00000000E+00
                       3.33333333E-01  1.66666667E-01  0.00000000E+00
                       5.00000000E-01  1.66666667E-01  0.00000000E+00
                      -3.33333333E-01  1.66666667E-01  0.00000000E+00
                      -1.66666667E-01  1.66666667E-01  0.00000000E+00
                       0.00000000E+00  3.33333333E-01  0.00000000E+00
                       1.66666667E-01  3.33333333E-01  0.00000000E+00
                       3.33333333E-01  3.33333333E-01  0.00000000E+00
                       5.00000000E-01  3.33333333E-01  0.00000000E+00
                      -3.33333333E-01  3.33333333E-01  0.00000000E+00
                      -1.66666667E-01  3.33333333E-01  0.00000000E+00
                       0.00000000E+00  5.00000000E-01  0.00000000E+00
                       1.66666667E-01  5.00000000E-01  0.00000000E+00
                       3.33333333E-01  5.00000000E-01  0.00000000E+00
                       5.00000000E-01  5.00000000E-01  0.00000000E+00
                       0.00000000E+00  0.00000000E+00  1.66666667E-01
                       1.66666667E-01  0.00000000E+00  1.66666667E-01
                       3.33333333E-01  0.00000000E+00  1.66666667E-01
                       5.00000000E-01  0.00000000E+00  1.66666667E-01
                      -3.33333333E-01  0.00000000E+00  1.66666667E-01
                      -1.66666667E-01  0.00000000E+00  1.66666667E-01
                       0.00000000E+00  1.66666667E-01  1.66666667E-01
                       1.66666667E-01  1.66666667E-01  1.66666667E-01
                       3.33333333E-01  1.66666667E-01  1.66666667E-01
                       5.00000000E-01  1.66666667E-01  1.66666667E-01
                      -3.33333333E-01  1.66666667E-01  1.66666667E-01
                      -1.66666667E-01  1.66666667E-01  1.66666667E-01
                       0.00000000E+00  3.33333333E-01  1.66666667E-01
                       1.66666667E-01  3.33333333E-01  1.66666667E-01
                       3.33333333E-01  3.33333333E-01  1.66666667E-01
                       5.00000000E-01  3.33333333E-01  1.66666667E-01
                      -3.33333333E-01  3.33333333E-01  1.66666667E-01
                      -1.66666667E-01  3.33333333E-01  1.66666667E-01
                       0.00000000E+00  5.00000000E-01  1.66666667E-01
                       1.66666667E-01  5.00000000E-01  1.66666667E-01
                       3.33333333E-01  5.00000000E-01  1.66666667E-01
                       5.00000000E-01  5.00000000E-01  1.66666667E-01
                      -3.33333333E-01  5.00000000E-01  1.66666667E-01
                      -1.66666667E-01  5.00000000E-01  1.66666667E-01
                       0.00000000E+00 -3.33333333E-01  1.66666667E-01
                       1.66666667E-01 -3.33333333E-01  1.66666667E-01
                       3.33333333E-01 -3.33333333E-01  1.66666667E-01
                       5.00000000E-01 -3.33333333E-01  1.66666667E-01
                      -3.33333333E-01 -3.33333333E-01  1.66666667E-01
                      -1.66666667E-01 -3.33333333E-01  1.66666667E-01
                       outvar_i_n : Printing only first  50 k-points.
           kptopt           2
         kptrlatt        6    0    0      0    6    0      0    0    6
          kptrlen      5.75486009E+01
P           mkmem           4
            natom          12
            nband          50
            ngfft          45      45      45
             nkpt         112
            nstep         100
             nsym           4
            ntime        1000
           ntypat           2
              occ      2.000000  2.000000  2.000000  2.000000  2.000000  2.000000
                       2.000000  2.000000  2.000000  2.000000  2.000000  2.000000
                       2.000000  2.000000  2.000000  2.000000  2.000000  2.000000
                       2.000000  2.000000  2.000000  2.000000  2.000000  2.000000
                       2.000000  2.000000  2.000000  2.000000  2.000000  2.000000
                       2.000000  2.000000  2.000000  2.000000  2.000000  2.000000
                       2.000000  2.000000  2.000000  2.000000  2.000000  2.000000
                       2.000000  2.000000  2.000000  2.000000  2.000000  2.000000
                       0.000000  0.000000
        pawecutdg      2.50000000E+01 Hartree
         pawxcdev           0
          spgroup          29
           strten     -1.9981429738E-04 -2.2153895937E-04 -5.6186647382E-04
                       0.0000000000E+00  0.0000000000E+00  0.0000000000E+00
           symrel      1  0  0   0  1  0   0  0  1      -1  0  0   0  1  0   0  0 -1
                       1  0  0   0  1  0   0  0 -1      -1  0  0   0  1  0   0  0  1
            tnons      0.0000000  0.0000000  0.0000000     0.5000000  0.5000000  0.0000000
                       0.0000000  0.5000000  0.5000000     0.5000000  0.0000000  0.5000000
           toldfe      1.00000000E-10 Hartree
           tsmear      4.00000000E-02 Hartree
            typat      1  1  1  1  2  2  2  2  2  2  2  2
              wtk        0.00463    0.00926    0.00926    0.00463    0.00926    0.00926
                         0.00926    0.00926    0.00926    0.00926    0.00926    0.00926
                         0.00926    0.00926    0.00926    0.00926    0.00463    0.00926
                         0.00926    0.00463    0.00926    0.00926    0.00926    0.00926
                         0.00926    0.00926    0.00926    0.00926    0.00926    0.00926
                         0.00926    0.00926    0.00926    0.00926    0.00926    0.00926
                         0.00926    0.00926    0.00926    0.00926    0.00926    0.00926
                         0.00926    0.00926    0.00926    0.00926    0.00926    0.00926
                         0.00926    0.00926
                       outvars : Printing only first  50 k-points.
           xangst      8.3119510100E-02  1.9510258504E-01  1.5523184428E-01
                       8.3119510100E-02  2.7328865850E+00  2.3825521557E+00
                       2.4546644899E+00  1.9510258504E-01  2.6930158443E+00
                       2.4546644899E+00  2.7328865850E+00 -1.5523184428E-01
                       1.0613814327E+00  1.4487825026E+00  3.7391580035E+00
                       1.0613814327E+00  3.9865665026E+00  3.8741939965E+00
                       1.4764025673E+00  3.9865665026E+00  1.3364099965E+00
                       1.4764025673E+00  1.4487825026E+00  1.2013740035E+00
                       4.1766435970E+00  8.9389891240E-01  1.8759631477E+00
                       4.1766435970E+00  3.4316829124E+00  6.6182085226E-01
                       3.4367084030E+00  3.4316829124E+00  3.1996048523E+00
                       3.4367084030E+00  8.9389891240E-01  4.4137471477E+00
            xcart      1.5707311039E-01  3.6869045355E-01  2.9334567278E-01
                       1.5707311039E-01  5.1644071980E+00  4.5023710716E+00
                       4.6386436340E+00  3.6869045355E-01  5.0890624172E+00
                       4.6386436340E+00  5.1644071980E+00 -2.9334567278E-01
                       2.0057202303E+00  2.7378021560E+00  7.0659845942E+00
                       2.0057202303E+00  7.5335189004E+00  7.3211656390E+00
                       2.7899965142E+00  7.5335189004E+00  2.5254488946E+00
                       2.7899965142E+00  2.7378021560E+00  2.2702678498E+00
                       7.8927125529E+00  1.6892241349E+00  3.5450565846E+00
                       7.8927125529E+00  6.4849408793E+00  1.2506601598E+00
                       6.4944376803E+00  6.4849408793E+00  6.0463769042E+00
                       6.4944376803E+00  1.6892241349E+00  8.3407733290E+00
             xred      1.6376395726E-02  3.8439556921E-02  3.0584132510E-02
                       1.6376395726E-02  5.3843955692E-01  4.6941586749E-01
                       4.8362360427E-01  3.8439556921E-02  5.3058413251E-01
                       4.8362360427E-01  5.3843955692E-01 -3.0584132510E-02
                       2.0911579407E-01  2.8544243769E-01  7.3669745012E-01
                       2.0911579407E-01  7.8544243769E-01  7.6330254988E-01
                       2.9088420593E-01  7.8544243769E-01  2.6330254988E-01
                       2.9088420593E-01  2.8544243769E-01  2.3669745012E-01
                       8.2289186096E-01  1.7611800539E-01  3.6960654408E-01
                       8.2289186096E-01  6.7611800539E-01  1.3039345592E-01
                       6.7710813904E-01  6.7611800539E-01  6.3039345592E-01
                       6.7710813904E-01  1.7611800539E-01  8.6960654408E-01
            znucl       72.00000    8.00000

- Timing analysis has been suppressed with timopt=0

 Suggested references for the acknowledgment of ABINIT usage.

 Calculation completed.
.Delivered   0 WARNINGs and   0 COMMENTs to log file.