.Version 9.4.1 of ABINIT

 ABINIT is a project of the Universite Catholique de Louvain,
 Corning Inc. and other collaborators, see ~abinit/doc/developers/contributors.txt .
 acknowledgments of the ABINIT effort.

.Starting date : Tue 27 Jul 2021.
- ( at 13h51 )

- input  file    -> MODE2_19_21_22total
- output file    -> MODE2_19_21_22total.abo
- root for input  files -> i
- root for output files -> o

 Symmetries : space group Pc a 2_1 (# 29); Bravais oP (primitive ortho.)
     intxc =       0    ionmov =       0      iscf =       7    lmnmax =       8
     lnmax =       8     mgfft =      45  mpssoang =       4    mqgrid =    3001
     natom =      12  nloc_mem =       1    nspden =       1   nspinor =       1
    nsppol =       1      nsym =       4    n1xccc =    2501    ntypat =       2
    occopt =       1   xclevel =       2
-    mband =          50        mffmem =           1         mkmem =           4
       mpw =        5280          nfft =       91125          nkpt =         112
  Rough estimation (10% accuracy) of disk space for files :

------------- Echo of variables that govern the present computation ------------
-
- outvars: echo of selected default values
-   iomode0 =  3 , fftalg0 =512 , wfoptalg0 =  0
-
- outvars: echo of global parameters not present in the input file
-  max_nthreads =    0
-
 -outvars: echo values of preprocessed input variables --------
            acell      9.5914334888E+00  9.5914334888E+00  9.5914334888E+00 Bohr
              amu      1.78490000E+02  1.59994000E+01
          chkprim           0
             ecut      2.50000000E+01 Hartree
           ecutsm      5.00000000E-01 Hartree
-          fftalg         512
           istwfk        2    0    0    3    0    0    0    0    0    0
                         0    0    0    0    0    0    6    0    0    7
                         0    0    0    0    0    0    0    0    0    0
                         0    0    0    0    0    0    0    0    0    0
                         0    0    0    0    0    0    0    0    0    0
                       outvar_i_n : Printing only first  50 k-points.
              ixc          11
              kpt      0.00000000E+00  0.00000000E+00  0.00000000E+00
                       1.66666667E-01  0.00000000E+00  0.00000000E+00
                       3.33333333E-01  0.00000000E+00  0.00000000E+00
                       5.00000000E-01  0.00000000E+00  0.00000000E+00
                       0.00000000E+00  1.66666667E-01  0.00000000E+00
                       1.66666667E-01  1.66666667E-01  0.00000000E+00
                       3.33333333E-01  1.66666667E-01  0.00000000E+00
                       5.00000000E-01  1.66666667E-01  0.00000000E+00
                      -3.33333333E-01  1.66666667E-01  0.00000000E+00
                      -1.66666667E-01  1.66666667E-01  0.00000000E+00
                       0.00000000E+00  3.33333333E-01  0.00000000E+00
                       1.66666667E-01  3.33333333E-01  0.00000000E+00
                       3.33333333E-01  3.33333333E-01  0.00000000E+00
                       5.00000000E-01  3.33333333E-01  0.00000000E+00
                      -3.33333333E-01  3.33333333E-01  0.00000000E+00
                      -1.66666667E-01  3.33333333E-01  0.00000000E+00
                       0.00000000E+00  5.00000000E-01  0.00000000E+00
                       1.66666667E-01  5.00000000E-01  0.00000000E+00
                       3.33333333E-01  5.00000000E-01  0.00000000E+00
                       5.00000000E-01  5.00000000E-01  0.00000000E+00
                       0.00000000E+00  0.00000000E+00  1.66666667E-01
                       1.66666667E-01  0.00000000E+00  1.66666667E-01
                       3.33333333E-01  0.00000000E+00  1.66666667E-01
                       5.00000000E-01  0.00000000E+00  1.66666667E-01
                      -3.33333333E-01  0.00000000E+00  1.66666667E-01
                      -1.66666667E-01  0.00000000E+00  1.66666667E-01
                       0.00000000E+00  1.66666667E-01  1.66666667E-01
                       1.66666667E-01  1.66666667E-01  1.66666667E-01
                       3.33333333E-01  1.66666667E-01  1.66666667E-01
                       5.00000000E-01  1.66666667E-01  1.66666667E-01
                      -3.33333333E-01  1.66666667E-01  1.66666667E-01
                      -1.66666667E-01  1.66666667E-01  1.66666667E-01
                       0.00000000E+00  3.33333333E-01  1.66666667E-01
                       1.66666667E-01  3.33333333E-01  1.66666667E-01
                       3.33333333E-01  3.33333333E-01  1.66666667E-01
                       5.00000000E-01  3.33333333E-01  1.66666667E-01
                      -3.33333333E-01  3.33333333E-01  1.66666667E-01
                      -1.66666667E-01  3.33333333E-01  1.66666667E-01
                       0.00000000E+00  5.00000000E-01  1.66666667E-01
                       1.66666667E-01  5.00000000E-01  1.66666667E-01
                       3.33333333E-01  5.00000000E-01  1.66666667E-01
                       5.00000000E-01  5.00000000E-01  1.66666667E-01
                      -3.33333333E-01  5.00000000E-01  1.66666667E-01
                      -1.66666667E-01  5.00000000E-01  1.66666667E-01
                       0.00000000E+00 -3.33333333E-01  1.66666667E-01
                       1.66666667E-01 -3.33333333E-01  1.66666667E-01
                       3.33333333E-01 -3.33333333E-01  1.66666667E-01
                       5.00000000E-01 -3.33333333E-01  1.66666667E-01
                      -3.33333333E-01 -3.33333333E-01  1.66666667E-01
                      -1.66666667E-01 -3.33333333E-01  1.66666667E-01
                       outvar_i_n : Printing only first  50 k-points.
           kptopt           2
         kptrlatt        6    0    0      0    6    0      0    0    6
          kptrlen      5.75486009E+01
P           mkmem           4
            natom          12
            nband          50
            ngfft          45      45      45
             nkpt         112
            nstep         100
             nsym           4
           ntypat           2
              occ      2.000000  2.000000  2.000000  2.000000  2.000000  2.000000
                       2.000000  2.000000  2.000000  2.000000  2.000000  2.000000
                       2.000000  2.000000  2.000000  2.000000  2.000000  2.000000
                       2.000000  2.000000  2.000000  2.000000  2.000000  2.000000
                       2.000000  2.000000  2.000000  2.000000  2.000000  2.000000
                       2.000000  2.000000  2.000000  2.000000  2.000000  2.000000
                       2.000000  2.000000  2.000000  2.000000  2.000000  2.000000
                       2.000000  2.000000  2.000000  2.000000  2.000000  2.000000
                       0.000000  0.000000
        pawecutdg      2.50000000E+01 Hartree
         pawxcdev           0
          spgroup          29
           symrel      1  0  0   0  1  0   0  0  1      -1  0  0   0  1  0   0  0 -1
                       1  0  0   0  1  0   0  0 -1      -1  0  0   0  1  0   0  0  1
            tnons      0.0000000  0.0000000  0.0000000     0.5000000  0.5000000  0.0000000
                       0.0000000  0.5000000  0.5000000     0.5000000  0.0000000  0.5000000
           toldfe      1.00000000E-10 Hartree
           tsmear      4.00000000E-02 Hartree
            typat      1  1  1  1  2  2  2  2  2  2  2  2
              wtk        0.00463    0.00926    0.00926    0.00463    0.00926    0.00926
                         0.00926    0.00926    0.00926    0.00926    0.00926    0.00926
                         0.00926    0.00926    0.00926    0.00926    0.00463    0.00926
                         0.00926    0.00463    0.00926    0.00926    0.00926    0.00926
                         0.00926    0.00926    0.00926    0.00926    0.00926    0.00926
                         0.00926    0.00926    0.00926    0.00926    0.00926    0.00926
                         0.00926    0.00926    0.00926    0.00926    0.00926    0.00926
                         0.00926    0.00926    0.00926    0.00926    0.00926    0.00926
                         0.00926    0.00926
                       outvars : Printing only first  50 k-points.
           xangst      0.0000000000E+00  0.0000000000E+00  0.0000000000E+00
                       0.0000000000E+00  2.5377840000E+00  2.5377840000E+00
                       2.5377840000E+00  0.0000000000E+00  2.5377840000E+00
                       2.5377840000E+00  2.5377840000E+00  0.0000000000E+00
                       9.8086488527E-01  1.5459042693E+00  3.7389756885E+00
                       9.8086488527E-01  4.0836882693E+00  3.8743763115E+00
                       1.5569191147E+00  4.0836882693E+00  1.3365923115E+00
                       1.5569191147E+00  1.5459042693E+00  1.2011916885E+00
                       4.0947031147E+00  9.9187973068E-01  1.8755989043E+00
                       4.0947031147E+00  3.5296637307E+00  6.6218509574E-01
                       3.5186488853E+00  3.5296637307E+00  3.1999690957E+00
                       3.5186488853E+00  9.9187973068E-01  4.4133829043E+00
            xcart      0.0000000000E+00  0.0000000000E+00  0.0000000000E+00
                       0.0000000000E+00  4.7957167444E+00  4.7957167444E+00
                       4.7957167444E+00  0.0000000000E+00  4.7957167444E+00
                       4.7957167444E+00  4.7957167444E+00  0.0000000000E+00
                       1.8535660065E+00  2.9213356967E+00  7.0656400688E+00
                       1.8535660065E+00  7.7170524411E+00  7.3215101645E+00
                       2.9421507379E+00  7.7170524411E+00  2.5257934201E+00
                       2.9421507379E+00  2.9213356967E+00  2.2699233244E+00
                       7.7378674823E+00  1.8743810477E+00  3.5443682642E+00
                       7.7378674823E+00  6.6700977922E+00  1.2513484802E+00
                       6.6492827509E+00  6.6700977922E+00  6.0470652247E+00
                       6.6492827509E+00  1.8743810477E+00  8.3400850086E+00
             xred      0.0000000000E+00  0.0000000000E+00  0.0000000000E+00
                       0.0000000000E+00  5.0000000000E-01  5.0000000000E-01
                       5.0000000000E-01  0.0000000000E+00  5.0000000000E-01
                       5.0000000000E-01  5.0000000000E-01  0.0000000000E+00
                       1.9325224000E-01  3.0457759000E-01  7.3666153000E-01
                       1.9325224000E-01  8.0457759000E-01  7.6333847000E-01
                       3.0674776000E-01  8.0457759000E-01  2.6333847000E-01
                       3.0674776000E-01  3.0457759000E-01  2.3666153000E-01
                       8.0674776000E-01  1.9542241000E-01  3.6953478000E-01
                       8.0674776000E-01  6.9542241000E-01  1.3046522000E-01
                       6.9325224000E-01  6.9542241000E-01  6.3046522000E-01
                       6.9325224000E-01  1.9542241000E-01  8.6953478000E-01
            znucl       72.00000    8.00000

 chkinp: Checking input parameters for consistency.

== DATASET  1 ==================================================================
[...]
 rms dE/dt=  3.6988E-01; max dE/dt=  5.4747E-01; dE/dt below (all hartree)
    1      -0.175415101968     -0.523035401991     -0.547471615000
    2      -0.175415101968     -0.523035401991      0.547471615000
    3       0.175415101968     -0.523035401991     -0.547471615000
    4       0.175415101968     -0.523035401991      0.547471615000
    5      -0.479231943251      0.399410570300     -0.400323956934
    6      -0.479231943251      0.399410570300      0.400323956934
    7       0.479231943251      0.399410570300      0.400323956934
    8       0.479231943251      0.399410570300     -0.400323956934
    9      -0.105391829217      0.123642381908      0.226704767005
   10      -0.105391829217      0.123642381908     -0.226704767005
   11       0.105391829217      0.123642381908     -0.226704767005
   12       0.105391829217      0.123642381908      0.226704767005

 cartesian coordinates (angstrom) at end:
    1      0.00000000000000     0.00000000000000     0.00000000000000
    2      0.00000000000000     2.53778400000000     2.53778400000000
    3      2.53778400000000     0.00000000000000     2.53778400000000
    4      2.53778400000000     2.53778400000000     0.00000000000000
    5      0.98086488527232     1.54590426932112     3.73897568849904
    6      0.98086488527232     4.08368826932112     3.87437631150096
    7      1.55691911472768     4.08368826932112     1.33659231150096
    8      1.55691911472768     1.54590426932112     1.20119168849904
    9      4.09470311472768     0.99187973067888     1.87559890425504
   10      4.09470311472768     3.52966373067888     0.66218509574496
   11      3.51864888527232     3.52966373067888     3.19996909574496
   12      3.51864888527232     0.99187973067888     4.41338290425504

 cartesian forces (hartree/bohr) at end:
    1      0.01828872630684     0.05453212522111     0.05707922758751
    2      0.01828872630684     0.05453212522111    -0.05707922758751
    3     -0.01828872630684     0.05453212522111     0.05707922758751
    4     -0.01828872630684     0.05453212522111    -0.05707922758751
    5      0.04996457972716    -0.04164181722077     0.04173765656613
    6      0.04996457972716    -0.04164181722077    -0.04173765656613
    7     -0.04996457972716    -0.04164181722077    -0.04173765656613
    8     -0.04996457972716    -0.04164181722077     0.04173765656613
    9      0.01098812073705    -0.01289030800034    -0.02363617151372
   10      0.01098812073705    -0.01289030800034     0.02363617151372
   11     -0.01098812073705    -0.01289030800034     0.02363617151372
   12     -0.01098812073705    -0.01289030800034    -0.02363617151372
 frms,max,avg= 3.8563610E-02 5.7079228E-02   0.000E+00 -6.099E-07  0.000E+00 h/b

 cartesian forces (eV/Angstrom) at end:
    1      0.94044403985576     2.80415438912626     2.93513164796824
    2      0.94044403985576     2.80415438912626    -2.93513164796824
    3     -0.94044403985576     2.80415438912626     2.93513164796824
    4     -0.94044403985576     2.80415438912626    -2.93513164796824
    5      2.56928177610292    -2.14130815656544     2.14623641343878
    6      2.56928177610292    -2.14130815656544    -2.14623641343878
    7     -2.56928177610292    -2.14130815656544    -2.14623641343878
    8     -2.56928177610292    -2.14130815656544     2.14623641343878
    9      0.56503183890418    -0.66284623256082    -1.21542070520058
   10      0.56503183890418    -0.66284623256082     1.21542070520058
   11     -0.56503183890418    -0.66284623256082     1.21542070520058
   12     -0.56503183890418    -0.66284623256082    -1.21542070520058
 frms,max,avg= 1.9830204E+00 2.9351316E+00   0.000E+00 -3.136E-05  0.000E+00 e/A
 length scales=  9.591433488838  9.591433488838  9.591433488838 bohr
              =  5.075568000000  5.075568000000  5.075568000000 angstroms
 prteigrs : about to open file o_EIG
 Fermi (or HOMO) energy (hartree) =   0.27657   Average Vxc (hartree)=  -0.44438
 Eigenvalues (hartree) for nkpt= 112  k points:
 kpt#   1, nband= 50, wtk=  0.00463, kpt=  0.0000  0.0000  0.0000 (reduced coord)
  -1.93335   -1.93265   -1.93262   -1.93262   -0.80519   -0.80517   -0.80227   -0.79387
  -0.79182   -0.79056   -0.78884   -0.78841   -0.78606   -0.78364   -0.78300   -0.78294
  -0.39481   -0.35053   -0.33644   -0.33594   -0.31622   -0.30906   -0.30765   -0.30459
   0.06278    0.06658    0.07832    0.08782    0.10169    0.10203    0.15129    0.16286
   0.16569    0.16827    0.17061    0.17097    0.19064    0.19274    0.19455    0.20356
   0.21917    0.23229    0.24151    0.24690    0.25388    0.26319    0.26804    0.27657
   0.45490    0.46954
 prteigrs : prtvol=0 or 1, do not print more k-points.

--- !EnergyTerms
iteration_state     : {dtset: 1, }
comment             : Components of total free energy in Hartree
kinetic             :  1.47367723172722E+02
hartree             :  5.80725309421295E+01
xc                  : -9.11638061844633E+01
Ewald energy        : -2.67712273019797E+02
psp_core            :  1.49595106529080E+01
local_psp           : -2.10824519584712E+02
non_local_psp       : -9.22343153185372E+00
total_energy        : -3.58524265553066E+02
total_energy_eV     : -9.75594141308906E+03
band_energy         : -3.13532961123341E+01
...

 Cartesian components of stress tensor (hartree/bohr^3)
  sigma(1 1)= -8.16904591E-04  sigma(3 2)=  0.00000000E+00
  sigma(2 2)= -9.36060033E-04  sigma(3 1)=  0.00000000E+00
  sigma(3 3)= -1.09812131E-03  sigma(2 1)=  0.00000000E+00

-Cartesian components of stress tensor (GPa)         [Pressure=  2.7961E+01 GPa]
- sigma(1 1)= -2.40341588E+01  sigma(3 2)=  0.00000000E+00
- sigma(2 2)= -2.75398323E+01  sigma(3 1)=  0.00000000E+00
- sigma(3 3)= -3.23078389E+01  sigma(2 1)=  0.00000000E+00

== END DATASET(S) ==============================================================

 -outvars: echo values of variables after computation  --------
            acell      9.5914334888E+00  9.5914334888E+00  9.5914334888E+00 Bohr
              amu      1.78490000E+02  1.59994000E+01
          chkprim           0
             ecut      2.50000000E+01 Hartree
           ecutsm      5.00000000E-01 Hartree
           etotal     -3.5852426555E+02
            fcart      1.8288726307E-02  5.4532125221E-02  5.7079227588E-02
                       1.8288726307E-02  5.4532125221E-02 -5.7079227588E-02
                      -1.8288726307E-02  5.4532125221E-02  5.7079227588E-02
                      -1.8288726307E-02  5.4532125221E-02 -5.7079227588E-02
                       4.9964579727E-02 -4.1641817221E-02  4.1737656566E-02
                       4.9964579727E-02 -4.1641817221E-02 -4.1737656566E-02
                      -4.9964579727E-02 -4.1641817221E-02 -4.1737656566E-02
                      -4.9964579727E-02 -4.1641817221E-02  4.1737656566E-02
                       1.0988120737E-02 -1.2890308000E-02 -2.3636171514E-02
                       1.0988120737E-02 -1.2890308000E-02  2.3636171514E-02
                      -1.0988120737E-02 -1.2890308000E-02  2.3636171514E-02
                      -1.0988120737E-02 -1.2890308000E-02 -2.3636171514E-02
-          fftalg         512
           istwfk        2    0    0    3    0    0    0    0    0    0
                         0    0    0    0    0    0    6    0    0    7
                         0    0    0    0    0    0    0    0    0    0
                         0    0    0    0    0    0    0    0    0    0
                         0    0    0    0    0    0    0    0    0    0
                       outvar_i_n : Printing only first  50 k-points.
              ixc          11
              kpt      0.00000000E+00  0.00000000E+00  0.00000000E+00
                       1.66666667E-01  0.00000000E+00  0.00000000E+00
                       3.33333333E-01  0.00000000E+00  0.00000000E+00
                       5.00000000E-01  0.00000000E+00  0.00000000E+00
                       0.00000000E+00  1.66666667E-01  0.00000000E+00
                       1.66666667E-01  1.66666667E-01  0.00000000E+00
                       3.33333333E-01  1.66666667E-01  0.00000000E+00
                       5.00000000E-01  1.66666667E-01  0.00000000E+00
                      -3.33333333E-01  1.66666667E-01  0.00000000E+00
                      -1.66666667E-01  1.66666667E-01  0.00000000E+00
                       0.00000000E+00  3.33333333E-01  0.00000000E+00
                       1.66666667E-01  3.33333333E-01  0.00000000E+00
                       3.33333333E-01  3.33333333E-01  0.00000000E+00
                       5.00000000E-01  3.33333333E-01  0.00000000E+00
                      -3.33333333E-01  3.33333333E-01  0.00000000E+00
                      -1.66666667E-01  3.33333333E-01  0.00000000E+00
                       0.00000000E+00  5.00000000E-01  0.00000000E+00
                       1.66666667E-01  5.00000000E-01  0.00000000E+00
                       3.33333333E-01  5.00000000E-01  0.00000000E+00
                       5.00000000E-01  5.00000000E-01  0.00000000E+00
                       0.00000000E+00  0.00000000E+00  1.66666667E-01
                       1.66666667E-01  0.00000000E+00  1.66666667E-01
                       3.33333333E-01  0.00000000E+00  1.66666667E-01
                       5.00000000E-01  0.00000000E+00  1.66666667E-01
                      -3.33333333E-01  0.00000000E+00  1.66666667E-01
                      -1.66666667E-01  0.00000000E+00  1.66666667E-01
                       0.00000000E+00  1.66666667E-01  1.66666667E-01
                       1.66666667E-01  1.66666667E-01  1.66666667E-01
                       3.33333333E-01  1.66666667E-01  1.66666667E-01
                       5.00000000E-01  1.66666667E-01  1.66666667E-01
                      -3.33333333E-01  1.66666667E-01  1.66666667E-01
                      -1.66666667E-01  1.66666667E-01  1.66666667E-01
                       0.00000000E+00  3.33333333E-01  1.66666667E-01
                       1.66666667E-01  3.33333333E-01  1.66666667E-01
                       3.33333333E-01  3.33333333E-01  1.66666667E-01
                       5.00000000E-01  3.33333333E-01  1.66666667E-01
                      -3.33333333E-01  3.33333333E-01  1.66666667E-01
                      -1.66666667E-01  3.33333333E-01  1.66666667E-01
                       0.00000000E+00  5.00000000E-01  1.66666667E-01
                       1.66666667E-01  5.00000000E-01  1.66666667E-01
                       3.33333333E-01  5.00000000E-01  1.66666667E-01
                       5.00000000E-01  5.00000000E-01  1.66666667E-01
                      -3.33333333E-01  5.00000000E-01  1.66666667E-01
                      -1.66666667E-01  5.00000000E-01  1.66666667E-01
                       0.00000000E+00 -3.33333333E-01  1.66666667E-01
                       1.66666667E-01 -3.33333333E-01  1.66666667E-01
                       3.33333333E-01 -3.33333333E-01  1.66666667E-01
                       5.00000000E-01 -3.33333333E-01  1.66666667E-01
                      -3.33333333E-01 -3.33333333E-01  1.66666667E-01
                      -1.66666667E-01 -3.33333333E-01  1.66666667E-01
                       outvar_i_n : Printing only first  50 k-points.
           kptopt           2
         kptrlatt        6    0    0      0    6    0      0    0    6
          kptrlen      5.75486009E+01
P           mkmem           4
            natom          12
            nband          50
            ngfft          45      45      45
             nkpt         112
            nstep         100
             nsym           4
           ntypat           2
              occ      2.000000  2.000000  2.000000  2.000000  2.000000  2.000000
                       2.000000  2.000000  2.000000  2.000000  2.000000  2.000000
                       2.000000  2.000000  2.000000  2.000000  2.000000  2.000000
                       2.000000  2.000000  2.000000  2.000000  2.000000  2.000000
                       2.000000  2.000000  2.000000  2.000000  2.000000  2.000000
                       2.000000  2.000000  2.000000  2.000000  2.000000  2.000000
                       2.000000  2.000000  2.000000  2.000000  2.000000  2.000000
                       2.000000  2.000000  2.000000  2.000000  2.000000  2.000000
                       0.000000  0.000000
        pawecutdg      2.50000000E+01 Hartree
         pawxcdev           0
          spgroup          29
           strten     -8.1690459130E-04 -9.3606003318E-04 -1.0981213076E-03
                       0.0000000000E+00  0.0000000000E+00  0.0000000000E+00
           symrel      1  0  0   0  1  0   0  0  1      -1  0  0   0  1  0   0  0 -1
                       1  0  0   0  1  0   0  0 -1      -1  0  0   0  1  0   0  0  1
            tnons      0.0000000  0.0000000  0.0000000     0.5000000  0.5000000  0.0000000
                       0.0000000  0.5000000  0.5000000     0.5000000  0.0000000  0.5000000
           toldfe      1.00000000E-10 Hartree
           tsmear      4.00000000E-02 Hartree
            typat      1  1  1  1  2  2  2  2  2  2  2  2
              wtk        0.00463    0.00926    0.00926    0.00463    0.00926    0.00926
                         0.00926    0.00926    0.00926    0.00926    0.00926    0.00926
                         0.00926    0.00926    0.00926    0.00926    0.00463    0.00926
                         0.00926    0.00463    0.00926    0.00926    0.00926    0.00926
                         0.00926    0.00926    0.00926    0.00926    0.00926    0.00926
                         0.00926    0.00926    0.00926    0.00926    0.00926    0.00926
                         0.00926    0.00926    0.00926    0.00926    0.00926    0.00926
                         0.00926    0.00926    0.00926    0.00926    0.00926    0.00926
                         0.00926    0.00926
                       outvars : Printing only first  50 k-points.
           xangst      0.0000000000E+00  0.0000000000E+00  0.0000000000E+00
                       0.0000000000E+00  2.5377840000E+00  2.5377840000E+00
                       2.5377840000E+00  0.0000000000E+00  2.5377840000E+00
                       2.5377840000E+00  2.5377840000E+00  0.0000000000E+00
                       9.8086488527E-01  1.5459042693E+00  3.7389756885E+00
                       9.8086488527E-01  4.0836882693E+00  3.8743763115E+00
                       1.5569191147E+00  4.0836882693E+00  1.3365923115E+00
                       1.5569191147E+00  1.5459042693E+00  1.2011916885E+00
                       4.0947031147E+00  9.9187973068E-01  1.8755989043E+00
                       4.0947031147E+00  3.5296637307E+00  6.6218509574E-01
                       3.5186488853E+00  3.5296637307E+00  3.1999690957E+00
                       3.5186488853E+00  9.9187973068E-01  4.4133829043E+00
            xcart      0.0000000000E+00  0.0000000000E+00  0.0000000000E+00
                       0.0000000000E+00  4.7957167444E+00  4.7957167444E+00
                       4.7957167444E+00  0.0000000000E+00  4.7957167444E+00
                       4.7957167444E+00  4.7957167444E+00  0.0000000000E+00
                       1.8535660065E+00  2.9213356967E+00  7.0656400688E+00
                       1.8535660065E+00  7.7170524411E+00  7.3215101645E+00
                       2.9421507379E+00  7.7170524411E+00  2.5257934201E+00
                       2.9421507379E+00  2.9213356967E+00  2.2699233244E+00
                       7.7378674823E+00  1.8743810477E+00  3.5443682642E+00
                       7.7378674823E+00  6.6700977922E+00  1.2513484802E+00
                       6.6492827509E+00  6.6700977922E+00  6.0470652247E+00
                       6.6492827509E+00  1.8743810477E+00  8.3400850086E+00
             xred      0.0000000000E+00  0.0000000000E+00  0.0000000000E+00
                       0.0000000000E+00  5.0000000000E-01  5.0000000000E-01
                       5.0000000000E-01  0.0000000000E+00  5.0000000000E-01
                       5.0000000000E-01  5.0000000000E-01  0.0000000000E+00
                       1.9325224000E-01  3.0457759000E-01  7.3666153000E-01
                       1.9325224000E-01  8.0457759000E-01  7.6333847000E-01
                       3.0674776000E-01  8.0457759000E-01  2.6333847000E-01
                       3.0674776000E-01  3.0457759000E-01  2.3666153000E-01
                       8.0674776000E-01  1.9542241000E-01  3.6953478000E-01
                       8.0674776000E-01  6.9542241000E-01  1.3046522000E-01
                       6.9325224000E-01  6.9542241000E-01  6.3046522000E-01
                       6.9325224000E-01  1.9542241000E-01  8.6953478000E-01
            znucl       72.00000    8.00000

- Timing analysis has been suppressed with timopt=0

 Suggested references for the acknowledgment of ABINIT usage.

 Calculation completed.
.Delivered   0 WARNINGs and   0 COMMENTs to log file.