.Version 9.4.1 of ABINIT

 ABINIT is a project of the Universite Catholique de Louvain,
 Corning Inc. and other collaborators, see ~abinit/doc/developers/contributors.txt .
 acknowledgments of the ABINIT effort.

.Starting date : Tue 20 Jul 2021.
- ( at 17h29 )

- input  file    -> MODE19MODE21MODE22INTER6INTER6INTER6
- output file    -> MODE19MODE21MODE22INTER6INTER6INTER6.abo
- root for input  files -> i
- root for output files -> o

 Symmetries : space group Pa -3 (#205); Bravais cP (primitive cubic)
     intxc =       0    ionmov =       2      iscf =       7    lmnmax =       8
     lnmax =       8     mgfft =      45  mpssoang =       4    mqgrid =    3001
     natom =      12  nloc_mem =       1    nspden =       1   nspinor =       1
    nsppol =       1      nsym =      24    n1xccc =    2501    ntypat =       2
    occopt =       1   xclevel =       2
-    mband =          50        mffmem =           1         mkmem =           4
       mpw =        5280          nfft =       91125          nkpt =         112
  Rough estimation (10% accuracy) of disk space for files :

------------- Echo of variables that govern the present computation ------------
-
- outvars: echo of selected default values
-   iomode0 =  3 , fftalg0 =512 , wfoptalg0 =  0
-
- outvars: echo of global parameters not present in the input file
-  max_nthreads =    0
-
 -outvars: echo values of preprocessed input variables --------
            acell      9.5914334888E+00  9.5914334888E+00  9.5914334888E+00 Bohr
              amu      1.78490000E+02  1.59994000E+01
          chkprim           0
             ecut      2.50000000E+01 Hartree
           ecutsm      5.00000000E-01 Hartree
-          fftalg         512
           ionmov           2
           istwfk        2    0    0    3    0    0    0    0    0    0
                         0    0    0    0    0    0    6    0    0    7
                         0    0    0    0    0    0    0    0    0    0
                         0    0    0    0    0    0    0    0    0    0
                         0    0    0    0    0    0    0    0    0    0
                       outvar_i_n : Printing only first  50 k-points.
              ixc          11
              kpt      0.00000000E+00  0.00000000E+00  0.00000000E+00
                       1.66666667E-01  0.00000000E+00  0.00000000E+00
                       3.33333333E-01  0.00000000E+00  0.00000000E+00
                       5.00000000E-01  0.00000000E+00  0.00000000E+00
                       0.00000000E+00  1.66666667E-01  0.00000000E+00
                       1.66666667E-01  1.66666667E-01  0.00000000E+00
                       3.33333333E-01  1.66666667E-01  0.00000000E+00
                       5.00000000E-01  1.66666667E-01  0.00000000E+00
                      -3.33333333E-01  1.66666667E-01  0.00000000E+00
                      -1.66666667E-01  1.66666667E-01  0.00000000E+00
                       0.00000000E+00  3.33333333E-01  0.00000000E+00
                       1.66666667E-01  3.33333333E-01  0.00000000E+00
                       3.33333333E-01  3.33333333E-01  0.00000000E+00
                       5.00000000E-01  3.33333333E-01  0.00000000E+00
                      -3.33333333E-01  3.33333333E-01  0.00000000E+00
                      -1.66666667E-01  3.33333333E-01  0.00000000E+00
                       0.00000000E+00  5.00000000E-01  0.00000000E+00
                       1.66666667E-01  5.00000000E-01  0.00000000E+00
                       3.33333333E-01  5.00000000E-01  0.00000000E+00
                       5.00000000E-01  5.00000000E-01  0.00000000E+00
                       0.00000000E+00  0.00000000E+00  1.66666667E-01
                       1.66666667E-01  0.00000000E+00  1.66666667E-01
                       3.33333333E-01  0.00000000E+00  1.66666667E-01
                       5.00000000E-01  0.00000000E+00  1.66666667E-01
                      -3.33333333E-01  0.00000000E+00  1.66666667E-01
                      -1.66666667E-01  0.00000000E+00  1.66666667E-01
                       0.00000000E+00  1.66666667E-01  1.66666667E-01
                       1.66666667E-01  1.66666667E-01  1.66666667E-01
                       3.33333333E-01  1.66666667E-01  1.66666667E-01
                       5.00000000E-01  1.66666667E-01  1.66666667E-01
                      -3.33333333E-01  1.66666667E-01  1.66666667E-01
                      -1.66666667E-01  1.66666667E-01  1.66666667E-01
                       0.00000000E+00  3.33333333E-01  1.66666667E-01
                       1.66666667E-01  3.33333333E-01  1.66666667E-01
                       3.33333333E-01  3.33333333E-01  1.66666667E-01
                       5.00000000E-01  3.33333333E-01  1.66666667E-01
                      -3.33333333E-01  3.33333333E-01  1.66666667E-01
                      -1.66666667E-01  3.33333333E-01  1.66666667E-01
                       0.00000000E+00  5.00000000E-01  1.66666667E-01
                       1.66666667E-01  5.00000000E-01  1.66666667E-01
                       3.33333333E-01  5.00000000E-01  1.66666667E-01
                       5.00000000E-01  5.00000000E-01  1.66666667E-01
                      -3.33333333E-01  5.00000000E-01  1.66666667E-01
                      -1.66666667E-01  5.00000000E-01  1.66666667E-01
                       0.00000000E+00 -3.33333333E-01  1.66666667E-01
                       1.66666667E-01 -3.33333333E-01  1.66666667E-01
                       3.33333333E-01 -3.33333333E-01  1.66666667E-01
                       5.00000000E-01 -3.33333333E-01  1.66666667E-01
                      -3.33333333E-01 -3.33333333E-01  1.66666667E-01
                      -1.66666667E-01 -3.33333333E-01  1.66666667E-01
                       outvar_i_n : Printing only first  50 k-points.
           kptopt           2
         kptrlatt        6    0    0      0    6    0      0    0    6
          kptrlen      5.75486009E+01
P           mkmem           4
            natom          12
            nband          50
            ngfft          45      45      45
             nkpt         112
            nstep         100
             nsym          24
            ntime        1000
           ntypat           2
              occ      2.000000  2.000000  2.000000  2.000000  2.000000  2.000000
                       2.000000  2.000000  2.000000  2.000000  2.000000  2.000000
                       2.000000  2.000000  2.000000  2.000000  2.000000  2.000000
                       2.000000  2.000000  2.000000  2.000000  2.000000  2.000000
                       2.000000  2.000000  2.000000  2.000000  2.000000  2.000000
                       2.000000  2.000000  2.000000  2.000000  2.000000  2.000000
                       2.000000  2.000000  2.000000  2.000000  2.000000  2.000000
                       2.000000  2.000000  2.000000  2.000000  2.000000  2.000000
                       0.000000  0.000000
        pawecutdg      2.50000000E+01 Hartree
         pawxcdev           0
          spgroup         205
           symrel      1  0  0   0  1  0   0  0  1      -1  0  0   0 -1  0   0  0 -1
                      -1  0  0   0  1  0   0  0 -1       1  0  0   0 -1  0   0  0  1
                      -1  0  0   0 -1  0   0  0  1       1  0  0   0  1  0   0  0 -1
                       1  0  0   0 -1  0   0  0 -1      -1  0  0   0  1  0   0  0  1
                       0  0  1   1  0  0   0  1  0       0  0 -1  -1  0  0   0 -1  0
                       0  0 -1   1  0  0   0 -1  0       0  0  1  -1  0  0   0  1  0
                       0  0 -1  -1  0  0   0  1  0       0  0  1   1  0  0   0 -1  0
                       0  0  1  -1  0  0   0 -1  0       0  0 -1   1  0  0   0  1  0
                       0  1  0   0  0  1   1  0  0       0 -1  0   0  0 -1  -1  0  0
                       0 -1  0   0  0  1  -1  0  0       0  1  0   0  0 -1   1  0  0
                       0 -1  0   0  0 -1   1  0  0       0  1  0   0  0  1  -1  0  0
                       0  1  0   0  0 -1  -1  0  0       0 -1  0   0  0  1   1  0  0
            tnons      0.0000000  0.0000000  0.0000000     0.0000000  0.0000000  0.0000000
                       0.5000000  0.5000000  0.0000000     0.5000000  0.5000000  0.0000000
                       0.0000000  0.5000000  0.5000000     0.0000000  0.5000000  0.5000000
                       0.5000000  0.0000000  0.5000000     0.5000000  0.0000000  0.5000000
                       0.5000000  0.5000000  0.0000000     0.5000000  0.5000000  0.0000000
                       0.0000000  0.5000000  0.5000000     0.0000000  0.5000000  0.5000000
                       0.0000000  0.0000000  0.0000000     0.0000000  0.0000000  0.0000000
                       0.5000000  0.0000000  0.5000000     0.5000000  0.0000000  0.5000000
                       0.0000000  0.5000000  0.5000000     0.0000000  0.5000000  0.5000000
                       0.0000000  0.0000000  0.0000000     0.0000000  0.0000000  0.0000000
                       0.5000000  0.5000000  0.0000000     0.5000000  0.5000000  0.0000000
                       0.5000000  0.0000000  0.5000000     0.5000000  0.0000000  0.5000000
           toldfe      1.00000000E-10 Hartree
           tsmear      4.00000000E-02 Hartree
            typat      1  1  1  1  2  2  2  2  2  2  2  2
              wtk        0.00463    0.00926    0.00926    0.00463    0.00926    0.00926
                         0.00926    0.00926    0.00926    0.00926    0.00926    0.00926
                         0.00926    0.00926    0.00926    0.00926    0.00463    0.00926
                         0.00926    0.00463    0.00926    0.00926    0.00926    0.00926
                         0.00926    0.00926    0.00926    0.00926    0.00926    0.00926
                         0.00926    0.00926    0.00926    0.00926    0.00926    0.00926
                         0.00926    0.00926    0.00926    0.00926    0.00926    0.00926
                         0.00926    0.00926    0.00926    0.00926    0.00926    0.00926
                         0.00926    0.00926
                       outvars : Printing only first  50 k-points.
           xangst      0.0000000000E+00  0.0000000000E+00  0.0000000000E+00
                       0.0000000000E+00  2.5377840000E+00  2.5377840000E+00
                       2.5377840000E+00  0.0000000000E+00  2.5377840000E+00
                       2.5377840000E+00  2.5377840000E+00  0.0000000000E+00
                       1.6224464741E+00  9.1533752594E-01  4.1602304741E+00
                       1.6224464741E+00  3.4531215259E+00  3.4531215259E+00
                       9.1533752594E-01  3.4531215259E+00  9.1533752594E-01
                       9.1533752594E-01  9.1533752594E-01  1.6224464741E+00
                       3.4531215259E+00  1.6224464741E+00  1.6224464741E+00
                       3.4531215259E+00  4.1602304741E+00  9.1533752594E-01
                       4.1602304741E+00  4.1602304741E+00  3.4531215259E+00
                       4.1602304741E+00  1.6224464741E+00  4.1602304741E+00
            xcart      0.0000000000E+00  0.0000000000E+00  0.0000000000E+00
                       0.0000000000E+00  4.7957167444E+00  4.7957167444E+00
[...]
    1     -0.00000000000000     0.00000000000000     0.00000000000000
    2     -0.00000000000000     0.00000000000000     0.00000000000000
    3     -0.00000000000000     0.00000000000000     0.00000000000000
    4     -0.00000000000000     0.00000000000000     0.00000000000000
    5     -0.00031754708858     0.00031754708858    -0.00031754708858
    6     -0.00031754708858     0.00031754708858     0.00031754708858
    7      0.00031754708858     0.00031754708858     0.00031754708858
    8      0.00031754708858     0.00031754708858    -0.00031754708858
    9      0.00031754708858    -0.00031754708858    -0.00031754708858
   10      0.00031754708858    -0.00031754708858     0.00031754708858
   11     -0.00031754708858    -0.00031754708858     0.00031754708858
   12     -0.00031754708858    -0.00031754708858    -0.00031754708858
 frms,max,avg= 2.5927611E-04 3.1754709E-04   0.000E+00  0.000E+00  0.000E+00 e/A
 length scales=  9.591433488838  9.591433488838  9.591433488838 bohr
              =  5.075568000000  5.075568000000  5.075568000000 angstroms
 prteigrs : about to open file o_EIG
 Fermi (or HOMO) energy (hartree) =   0.28225   Average Vxc (hartree)=  -0.44620
 Eigenvalues (hartree) for nkpt= 112  k points:
 kpt#   1, nband= 50, wtk=  0.00463, kpt=  0.0000  0.0000  0.0000 (reduced coord)
  -1.94505   -1.94435   -1.94435   -1.94435   -0.80810   -0.80810   -0.80810   -0.79990
  -0.79566   -0.79566   -0.79566   -0.79359   -0.79359   -0.78988   -0.78988   -0.78988
  -0.39423   -0.34499   -0.34498   -0.34498   -0.30892   -0.30891   -0.30891   -0.28754
   0.06608    0.06609    0.06609    0.09420    0.09420    0.09420    0.16920    0.16920
   0.17213    0.17213    0.17213    0.18549    0.18652    0.18652    0.21730    0.21731
   0.21731    0.26431    0.26431    0.26432    0.27663    0.27663    0.27663    0.28225
   0.45976    0.45978
 prteigrs : prtvol=0 or 1, do not print more k-points.

--- !EnergyTerms
iteration_state     : {dtset: 1, itime: 6, icycle: 1, }
comment             : Components of total free energy in Hartree
kinetic             :  1.46576925880431E+02
hartree             :  5.60653105533111E+01
xc                  : -9.09881755707093E+01
Ewald energy        : -2.69808403837895E+02
psp_core            :  1.49595106529080E+01
local_psp           : -2.06226255852877E+02
non_local_psp       : -9.15942300269155E+00
total_energy        : -3.58580511177523E+02
total_energy_eV     : -9.75747193436659E+03
band_energy         : -3.12700289365053E+01
...

 rms coord change=  6.8606E-03   atom, delta coord (reduced):
     1        0.000000000000     -0.000000000000     -0.000000000000
     2        0.000000000000      0.000000000000      0.000000000000
     3        0.000000000000     -0.000000000000      0.000000000000
     4        0.000000000000      0.000000000000     -0.000000000000
     5       -0.008402535435      0.008402535435     -0.008402535435
     6       -0.008402535435      0.008402535435      0.008402535435
     7        0.008402535435      0.008402535435      0.008402535435
     8        0.008402535435      0.008402535435     -0.008402535435
     9        0.008402535435     -0.008402535435     -0.008402535435
    10        0.008402535435     -0.008402535435      0.008402535435
    11       -0.008402535435     -0.008402535435      0.008402535435
    12       -0.008402535435     -0.008402535435     -0.008402535435

 Cartesian components of stress tensor (hartree/bohr^3)
  sigma(1 1)= -5.48245455E-04  sigma(3 2)=  0.00000000E+00
  sigma(2 2)= -5.48245455E-04  sigma(3 1)=  0.00000000E+00
  sigma(3 3)= -5.48245455E-04  sigma(2 1)=  0.00000000E+00

-Cartesian components of stress tensor (GPa)         [Pressure=  1.6130E+01 GPa]
- sigma(1 1)= -1.61299355E+01  sigma(3 2)=  0.00000000E+00
- sigma(2 2)= -1.61299355E+01  sigma(3 1)=  0.00000000E+00
- sigma(3 3)= -1.61299355E+01  sigma(2 1)=  0.00000000E+00

== END DATASET(S) ==============================================================

 -outvars: echo values of variables after computation  --------
            acell      9.5914334888E+00  9.5914334888E+00  9.5914334888E+00 Bohr
              amu      1.78490000E+02  1.59994000E+01
          chkprim           0
             ecut      2.50000000E+01 Hartree
           ecutsm      5.00000000E-01 Hartree
           etotal     -3.5858051118E+02
            fcart     -7.0586078938E-23  7.0586078938E-23  7.0586078938E-23
                      -7.0586078938E-23  7.0586078938E-23  7.0586078938E-23
                      -7.0586078938E-23  7.0586078938E-23  7.0586078938E-23
                      -7.0586078938E-23  7.0586078938E-23  7.0586078938E-23
                      -6.1753082017E-06  6.1753082017E-06 -6.1753082017E-06
                      -6.1753082017E-06  6.1753082017E-06  6.1753082017E-06
                       6.1753082017E-06  6.1753082017E-06  6.1753082017E-06
                       6.1753082017E-06  6.1753082017E-06 -6.1753082017E-06
                       6.1753082017E-06 -6.1753082017E-06 -6.1753082017E-06
                       6.1753082017E-06 -6.1753082017E-06  6.1753082017E-06
                      -6.1753082017E-06 -6.1753082017E-06  6.1753082017E-06
                      -6.1753082017E-06 -6.1753082017E-06 -6.1753082017E-06
-          fftalg         512
           ionmov           2
           istwfk        2    0    0    3    0    0    0    0    0    0
                         0    0    0    0    0    0    6    0    0    7
                         0    0    0    0    0    0    0    0    0    0
                         0    0    0    0    0    0    0    0    0    0
                         0    0    0    0    0    0    0    0    0    0
                       outvar_i_n : Printing only first  50 k-points.
              ixc          11
              kpt      0.00000000E+00  0.00000000E+00  0.00000000E+00
                       1.66666667E-01  0.00000000E+00  0.00000000E+00
                       3.33333333E-01  0.00000000E+00  0.00000000E+00
                       5.00000000E-01  0.00000000E+00  0.00000000E+00
                       0.00000000E+00  1.66666667E-01  0.00000000E+00
                       1.66666667E-01  1.66666667E-01  0.00000000E+00
                       3.33333333E-01  1.66666667E-01  0.00000000E+00
                       5.00000000E-01  1.66666667E-01  0.00000000E+00
                      -3.33333333E-01  1.66666667E-01  0.00000000E+00
                      -1.66666667E-01  1.66666667E-01  0.00000000E+00
                       0.00000000E+00  3.33333333E-01  0.00000000E+00
                       1.66666667E-01  3.33333333E-01  0.00000000E+00
                       3.33333333E-01  3.33333333E-01  0.00000000E+00
                       5.00000000E-01  3.33333333E-01  0.00000000E+00
                      -3.33333333E-01  3.33333333E-01  0.00000000E+00
                      -1.66666667E-01  3.33333333E-01  0.00000000E+00
                       0.00000000E+00  5.00000000E-01  0.00000000E+00
                       1.66666667E-01  5.00000000E-01  0.00000000E+00
                       3.33333333E-01  5.00000000E-01  0.00000000E+00
                       5.00000000E-01  5.00000000E-01  0.00000000E+00
                       0.00000000E+00  0.00000000E+00  1.66666667E-01
                       1.66666667E-01  0.00000000E+00  1.66666667E-01
                       3.33333333E-01  0.00000000E+00  1.66666667E-01
                       5.00000000E-01  0.00000000E+00  1.66666667E-01
                      -3.33333333E-01  0.00000000E+00  1.66666667E-01
                      -1.66666667E-01  0.00000000E+00  1.66666667E-01
                       0.00000000E+00  1.66666667E-01  1.66666667E-01
                       1.66666667E-01  1.66666667E-01  1.66666667E-01
                       3.33333333E-01  1.66666667E-01  1.66666667E-01
                       5.00000000E-01  1.66666667E-01  1.66666667E-01
                      -3.33333333E-01  1.66666667E-01  1.66666667E-01
                      -1.66666667E-01  1.66666667E-01  1.66666667E-01
                       0.00000000E+00  3.33333333E-01  1.66666667E-01
                       1.66666667E-01  3.33333333E-01  1.66666667E-01
                       3.33333333E-01  3.33333333E-01  1.66666667E-01
                       5.00000000E-01  3.33333333E-01  1.66666667E-01
                      -3.33333333E-01  3.33333333E-01  1.66666667E-01
                      -1.66666667E-01  3.33333333E-01  1.66666667E-01
                       0.00000000E+00  5.00000000E-01  1.66666667E-01
                       1.66666667E-01  5.00000000E-01  1.66666667E-01
                       3.33333333E-01  5.00000000E-01  1.66666667E-01
                       5.00000000E-01  5.00000000E-01  1.66666667E-01
                      -3.33333333E-01  5.00000000E-01  1.66666667E-01
                      -1.66666667E-01  5.00000000E-01  1.66666667E-01
                       0.00000000E+00 -3.33333333E-01  1.66666667E-01
                       1.66666667E-01 -3.33333333E-01  1.66666667E-01
                       3.33333333E-01 -3.33333333E-01  1.66666667E-01
                       5.00000000E-01 -3.33333333E-01  1.66666667E-01
                      -3.33333333E-01 -3.33333333E-01  1.66666667E-01
                      -1.66666667E-01 -3.33333333E-01  1.66666667E-01
                       outvar_i_n : Printing only first  50 k-points.
           kptopt           2
         kptrlatt        6    0    0      0    6    0      0    0    6
          kptrlen      5.75486009E+01
P           mkmem           4
            natom          12
            nband          50
            ngfft          45      45      45
             nkpt         112
            nstep         100
             nsym          24
            ntime        1000
           ntypat           2
              occ      2.000000  2.000000  2.000000  2.000000  2.000000  2.000000
                       2.000000  2.000000  2.000000  2.000000  2.000000  2.000000
                       2.000000  2.000000  2.000000  2.000000  2.000000  2.000000
                       2.000000  2.000000  2.000000  2.000000  2.000000  2.000000
                       2.000000  2.000000  2.000000  2.000000  2.000000  2.000000
                       2.000000  2.000000  2.000000  2.000000  2.000000  2.000000
                       2.000000  2.000000  2.000000  2.000000  2.000000  2.000000
                       2.000000  2.000000  2.000000  2.000000  2.000000  2.000000
                       0.000000  0.000000
        pawecutdg      2.50000000E+01 Hartree
         pawxcdev           0
          spgroup         205
           strten     -5.4824545525E-04 -5.4824545525E-04 -5.4824545525E-04
                       0.0000000000E+00  0.0000000000E+00  0.0000000000E+00
           symrel      1  0  0   0  1  0   0  0  1      -1  0  0   0 -1  0   0  0 -1
                      -1  0  0   0  1  0   0  0 -1       1  0  0   0 -1  0   0  0  1
                      -1  0  0   0 -1  0   0  0  1       1  0  0   0  1  0   0  0 -1
                       1  0  0   0 -1  0   0  0 -1      -1  0  0   0  1  0   0  0  1
                       0  0  1   1  0  0   0  1  0       0  0 -1  -1  0  0   0 -1  0
                       0  0 -1   1  0  0   0 -1  0       0  0  1  -1  0  0   0  1  0
                       0  0 -1  -1  0  0   0  1  0       0  0  1   1  0  0   0 -1  0
                       0  0  1  -1  0  0   0 -1  0       0  0 -1   1  0  0   0  1  0
                       0  1  0   0  0  1   1  0  0       0 -1  0   0  0 -1  -1  0  0
                       0 -1  0   0  0  1  -1  0  0       0  1  0   0  0 -1   1  0  0
                       0 -1  0   0  0 -1   1  0  0       0  1  0   0  0  1  -1  0  0
                       0  1  0   0  0 -1  -1  0  0       0 -1  0   0  0  1   1  0  0
            tnons      0.0000000  0.0000000  0.0000000     0.0000000  0.0000000  0.0000000
                       0.5000000  0.5000000  0.0000000     0.5000000  0.5000000  0.0000000
                       0.0000000  0.5000000  0.5000000     0.0000000  0.5000000  0.5000000
                       0.5000000  0.0000000  0.5000000     0.5000000  0.0000000  0.5000000
                       0.5000000  0.5000000  0.0000000     0.5000000  0.5000000  0.0000000
                       0.0000000  0.5000000  0.5000000     0.0000000  0.5000000  0.5000000
                       0.0000000  0.0000000  0.0000000     0.0000000  0.0000000  0.0000000
                       0.5000000  0.0000000  0.5000000     0.5000000  0.0000000  0.5000000
                       0.0000000  0.5000000  0.5000000     0.0000000  0.5000000  0.5000000
                       0.0000000  0.0000000  0.0000000     0.0000000  0.0000000  0.0000000
                       0.5000000  0.5000000  0.0000000     0.5000000  0.5000000  0.0000000
                       0.5000000  0.0000000  0.5000000     0.5000000  0.0000000  0.5000000
           toldfe      1.00000000E-10 Hartree
           tsmear      4.00000000E-02 Hartree
            typat      1  1  1  1  2  2  2  2  2  2  2  2
              wtk        0.00463    0.00926    0.00926    0.00463    0.00926    0.00926
                         0.00926    0.00926    0.00926    0.00926    0.00926    0.00926
                         0.00926    0.00926    0.00926    0.00926    0.00463    0.00926
                         0.00926    0.00463    0.00926    0.00926    0.00926    0.00926
                         0.00926    0.00926    0.00926    0.00926    0.00926    0.00926
                         0.00926    0.00926    0.00926    0.00926    0.00926    0.00926
                         0.00926    0.00926    0.00926    0.00926    0.00926    0.00926
                         0.00926    0.00926    0.00926    0.00926    0.00926    0.00926
                         0.00926    0.00926
                       outvars : Printing only first  50 k-points.
           xangst      1.7427198638E-20 -1.5438347945E-20 -2.9045527161E-20
                       1.7427198638E-20  2.5377840000E+00  2.5377840000E+00
                       2.5377840000E+00 -1.5438347945E-20  2.5377840000E+00
                       2.5377840000E+00  2.5377840000E+00 -2.9045527161E-20
                       1.5797988341E+00  9.5798516592E-01  4.1175828341E+00
                       1.5797988341E+00  3.4957691659E+00  3.4957691659E+00
                       9.5798516592E-01  3.4957691659E+00  9.5798516592E-01
                       9.5798516592E-01  9.5798516592E-01  1.5797988341E+00
                       3.4957691659E+00  1.5797988341E+00  1.5797988341E+00
                       3.4957691659E+00  4.1175828341E+00  9.5798516592E-01
                       4.1175828341E+00  4.1175828341E+00  3.4957691659E+00
                       4.1175828341E+00  1.5797988341E+00  4.1175828341E+00
            xcart      3.2932632689E-20 -2.9174249561E-20 -5.4888091720E-20
                       3.2932632689E-20  4.7957167444E+00  4.7957167444E+00
                       4.7957167444E+00 -2.9174249561E-20  4.7957167444E+00
                       4.7957167444E+00  4.7957167444E+00 -5.4888091720E-20
                       2.9853871415E+00  1.8103296030E+00  7.7811038859E+00
                       2.9853871415E+00  6.6060463474E+00  6.6060463474E+00
                       1.8103296030E+00  6.6060463474E+00  1.8103296030E+00
                       1.8103296030E+00  1.8103296030E+00  2.9853871415E+00
                       6.6060463474E+00  2.9853871415E+00  2.9853871415E+00
                       6.6060463474E+00  7.7811038859E+00  1.8103296030E+00
                       7.7811038859E+00  7.7811038859E+00  6.6060463474E+00
                       7.7811038859E+00  2.9853871415E+00  7.7811038859E+00
             xred      3.4335464795E-21 -3.0416985735E-21 -5.7226161016E-21
                       3.4335464795E-21  5.0000000000E-01  5.0000000000E-01
                       5.0000000000E-01 -3.0416985735E-21  5.0000000000E-01
                       5.0000000000E-01  5.0000000000E-01 -5.7226161016E-21
                       3.1125557456E-01  1.8874442544E-01  8.1125557456E-01
                       3.1125557456E-01  6.8874442544E-01  6.8874442544E-01
                       1.8874442544E-01  6.8874442544E-01  1.8874442544E-01
                       1.8874442544E-01  1.8874442544E-01  3.1125557456E-01
                       6.8874442544E-01  3.1125557456E-01  3.1125557456E-01
                       6.8874442544E-01  8.1125557456E-01  1.8874442544E-01
                       8.1125557456E-01  8.1125557456E-01  6.8874442544E-01
                       8.1125557456E-01  3.1125557456E-01  8.1125557456E-01
            znucl       72.00000    8.00000

- Timing analysis has been suppressed with timopt=0

 Suggested references for the acknowledgment of ABINIT usage.

 Calculation completed.
.Delivered   0 WARNINGs and   0 COMMENTs to log file.