.Version 9.4.1 of ABINIT

 ABINIT is a project of the Universite Catholique de Louvain,
 Corning Inc. and other collaborators, see ~abinit/doc/developers/contributors.txt .
 acknowledgments of the ABINIT effort.

.Starting date : Fri  2 Jul 2021.
- ( at 15h52 )

 === Build Information ===
  Version       : 9.4.1
  Build target  : x86_64_linux_intel19.0
  Build date    : 20210409

 === Optimizations ===
  Debug level        : basic
  Optimization level : standard
  Architecture       : intel_xeon

 === Multicore ===
  Parallel build : yes
  Parallel I/O   :
  openMP support :
  GPU support    :

 === Connectors / Fallbacks ===
  LINALG flavor  : mkl
  FFT flavor     : dfti
  HDF5           : yes
  NetCDF         : yes
  NetCDF Fortran : yes
  Wannier90      : no

 === Experimental features ===
  Exports             :
  GW double-precision :

 Default optimizations:
   --- None ---

 CPP options activated during the build:

                  CC_INTEL                   CXX_GNU                  FC_INTEL

                 HAVE_DFTI HAVE_FC_ALLOCATABLE_DT...             HAVE_FC_ASYNC

  HAVE_FC_COMMAND_ARGUMENT      HAVE_FC_COMMAND_LINE        HAVE_FC_CONTIGUOUS

           HAVE_FC_CPUTIME             HAVE_FC_ETIME              HAVE_FC_EXIT

             HAVE_FC_FLUSH             HAVE_FC_GAMMA            HAVE_FC_GETENV

            HAVE_FC_GETPID   HAVE_FC_IEEE_ARITHMETIC   HAVE_FC_IEEE_EXCEPTIONS

             HAVE_FC_IOMSG     HAVE_FC_ISO_C_BINDING  HAVE_FC_ISO_FORTRAN_2008

        HAVE_FC_LONG_LINES        HAVE_FC_MOVE_ALLOC  HAVE_FC_ON_THE_FLY_SHAPE

           HAVE_FC_PRIVATE         HAVE_FC_PROTECTED           HAVE_FC_SHIFTLR

         HAVE_FC_STREAM_IO            HAVE_FC_SYSTEM                 HAVE_HDF5

             HAVE_HDF5_MPI        HAVE_LIBPAW_ABINIT      HAVE_LIBTETRA_ABINIT

         HAVE_LINALG_GEMMT  HAVE_LINALG_MKL_IMATCOPY   HAVE_LINALG_MKL_OMATADD

                  HAVE_MPI                 HAVE_MPI2       HAVE_MPI_IALLGATHER

       HAVE_MPI_IALLREDUCE        HAVE_MPI_IALLTOALL       HAVE_MPI_IALLTOALLV

           HAVE_MPI_IBCAST         HAVE_MPI_IGATHERV        HAVE_MPI_INTEGER16

               HAVE_MPI_IO HAVE_MPI_TYPE_CREATE_S...               HAVE_NETCDF

       HAVE_NETCDF_DEFAULT       HAVE_NETCDF_FORTRAN   HAVE_NETCDF_FORTRAN_MPI

           HAVE_NETCDF_MPI             HAVE_OS_LINUX         HAVE_TIMER_ABINIT

- input  file    -> PATH9
- output file    -> PATH9.abo
- root for input  files -> i
- root for output files -> o

ABI_PSPDIR  found in environment, with value /workspace/jiahaoz/PACKAGE_INSTALL/abinit-9.4.1
-instrng: 75 lines of input have been read from file PATH9

 For atom type 1, psp file is /workspace/jiahaoz/PACKAGE_INSTALL/abinit-9.4.1/pbe_s_sr/Hf.psp8
 For atom type 2, psp file is /workspace/jiahaoz/PACKAGE_INSTALL/abinit-9.4.1/pbe_s_sr/O.psp8
  read the values zionpsp= 12.0 , pspcod=   8 , lmax=   3
  read the values zionpsp=  6.0 , pspcod=   8 , lmax=   2

 inpspheads: deduce mpsang = 4, n1xccc = 2501.

 invars1m : enter jdtset= 0

 symlatt: the Bravais lattice is cP (primitive cubic)
  xred   is defined in input file
 ingeo: takes atomic coordinates from input array xred

--- !COMMENT
src_file: m_ingeo.F90
src_line: 900
message: |
    The tolerance on symmetries =   1.000E-05 is bigger than 1.0e-8.
    In order to avoid spurious effects, the atomic coordinates have been
    symmetrized before storing them in the dataset internal variable.
    So, do not be surprised by the fact that your input variables (xcart, xred, ...)
    do not correspond exactly to the ones echoed by ABINIT, the latter being used to do the calculations.
    This is not a problem per se.
    Still, in order to avoid this symmetrization (e.g. for specific debugging/development), decrease tolsym to 1.0e-8 or lower,
    or (much preferred) use input primitive vectors that are accurate to better than 1.0e-8.
    This message will only be printed once, even if there are other datasets where tolsym is bigger than 1.0e-8.
...

 symlatt: the Bravais lattice is cP (primitive cubic)

--- !COMMENT
src_file: m_symtk.F90
src_line: 830
message: |
    According to the symmetry finder, the unit cell is
    not primitive, with multiplicity= 2.
    This is allowed, as the input variable chkprim is 0.
...

 invars2: take the default value of fband=  1.25000000E-01

--- !WARNING
src_file: m_mpinfo.F90
src_line: 2281
message: |
    nkpt*nsppol (112) is not a multiple of nproc_spkpt (36)
    The k-point parallelisation is inefficient. (Ignore this warning if this is not a GS run)
...

--- !WARNING
src_file: m_mpi_setup.F90
src_line: 707
message: |
    Your number of spins*k-points (=112) will not distribute correctly
    You will leave some empty.
    YOU ARE STRONGLY ADVICED TO ACTIVATE AUTOMATIC PARALLELIZATION!
    PUT "AUTOPARAL=1" IN THE INPUT FILE.
...

 For input ecut=  2.500000E+01 best grid ngfft=      45      45      45
       max ecut=  2.596259E+01

 ==== FFT mesh ====
  FFT mesh divisions ........................    45   45   45
  Augmented FFT divisions ...................    45   45   45
  FFT algorithm .............................   512
  FFT cache size ............................    16
 getmpw: optimal value of mpw= 5280

 Symmetries : the unit cell is not primitive

 getdim_nloc : deduce lmnmax  =  32, lnmax  =   8,
                      lmnmaxso=  32, lnmaxso=   8.
     intxc =       0    ionmov =       0      iscf =       7    lmnmax =       8
     lnmax =       8     mgfft =      45  mpssoang =       4    mqgrid =    3001
     natom =      12  nloc_mem =       1    nspden =       1   nspinor =       1
    nsppol =       1      nsym =       2    n1xccc =    2501    ntypat =       2
    occopt =       1   xclevel =       2
-    mband =          50        mffmem =           1         mkmem =           4
       mpw =        5280          nfft =       91125          nkpt =         112
  Rough estimation (10% accuracy) of disk space for files :

 The job will continue.
------------- Echo of variables that govern the present computation ------------
-
- outvars: echo of selected default values
-   iomode0 =  3 , fftalg0 =512 , wfoptalg0 =  0
-
- outvars: echo of global parameters not present in the input file
-  max_nthreads =    0
-
 -outvars: echo values of preprocessed input variables --------

 These variables are accessible in NetCDF format (o_OUT.nc)

            acell      9.5914334888E+00  9.5914334888E+00  9.5914334888E+00 Bohr
              amu      1.78490000E+02  1.59994000E+01
          chkprim           0
             ecut      2.50000000E+01 Hartree
           ecutsm      5.00000000E-01 Hartree
-          fftalg         512
           istwfk        2    0    0    3    0    0    0    0    0    0
                         0    0    0    0    0    0    6    0    0    7
                         0    0    0    0    0    0    0    0    0    0
                         0    0    0    0    0    0    0    0    0    0
                         0    0    0    0    0    0    0    0    0    0
                       outvar_i_n : Printing only first  50 k-points.
              ixc          11
              kpt      0.00000000E+00  0.00000000E+00  0.00000000E+00
                       1.66666667E-01  0.00000000E+00  0.00000000E+00
                       3.33333333E-01  0.00000000E+00  0.00000000E+00
                       5.00000000E-01  0.00000000E+00  0.00000000E+00
                       0.00000000E+00  1.66666667E-01  0.00000000E+00
                       1.66666667E-01  1.66666667E-01  0.00000000E+00
                       3.33333333E-01  1.66666667E-01  0.00000000E+00
                       5.00000000E-01  1.66666667E-01  0.00000000E+00
                      -3.33333333E-01  1.66666667E-01  0.00000000E+00
                      -1.66666667E-01  1.66666667E-01  0.00000000E+00
                       0.00000000E+00  3.33333333E-01  0.00000000E+00
                       1.66666667E-01  3.33333333E-01  0.00000000E+00
                       3.33333333E-01  3.33333333E-01  0.00000000E+00
                       5.00000000E-01  3.33333333E-01  0.00000000E+00
                      -3.33333333E-01  3.33333333E-01  0.00000000E+00
                      -1.66666667E-01  3.33333333E-01  0.00000000E+00
                       0.00000000E+00  5.00000000E-01  0.00000000E+00
                       1.66666667E-01  5.00000000E-01  0.00000000E+00
                       3.33333333E-01  5.00000000E-01  0.00000000E+00
                       5.00000000E-01  5.00000000E-01  0.00000000E+00
                       0.00000000E+00  0.00000000E+00  1.66666667E-01
                       1.66666667E-01  0.00000000E+00  1.66666667E-01
                       3.33333333E-01  0.00000000E+00  1.66666667E-01
                       5.00000000E-01  0.00000000E+00  1.66666667E-01
                      -3.33333333E-01  0.00000000E+00  1.66666667E-01
                      -1.66666667E-01  0.00000000E+00  1.66666667E-01
                       0.00000000E+00  1.66666667E-01  1.66666667E-01
                       1.66666667E-01  1.66666667E-01  1.66666667E-01
                       3.33333333E-01  1.66666667E-01  1.66666667E-01
                       5.00000000E-01  1.66666667E-01  1.66666667E-01
                      -3.33333333E-01  1.66666667E-01  1.66666667E-01
                      -1.66666667E-01  1.66666667E-01  1.66666667E-01
                       0.00000000E+00  3.33333333E-01  1.66666667E-01
                       1.66666667E-01  3.33333333E-01  1.66666667E-01
                       3.33333333E-01  3.33333333E-01  1.66666667E-01
                       5.00000000E-01  3.33333333E-01  1.66666667E-01
                      -3.33333333E-01  3.33333333E-01  1.66666667E-01
                      -1.66666667E-01  3.33333333E-01  1.66666667E-01
                       0.00000000E+00  5.00000000E-01  1.66666667E-01
                       1.66666667E-01  5.00000000E-01  1.66666667E-01
                       3.33333333E-01  5.00000000E-01  1.66666667E-01
                       5.00000000E-01  5.00000000E-01  1.66666667E-01
                      -3.33333333E-01  5.00000000E-01  1.66666667E-01
                      -1.66666667E-01  5.00000000E-01  1.66666667E-01
                       0.00000000E+00 -3.33333333E-01  1.66666667E-01
                       1.66666667E-01 -3.33333333E-01  1.66666667E-01
                       3.33333333E-01 -3.33333333E-01  1.66666667E-01
                       5.00000000E-01 -3.33333333E-01  1.66666667E-01
                      -3.33333333E-01 -3.33333333E-01  1.66666667E-01
                      -1.66666667E-01 -3.33333333E-01  1.66666667E-01
                       outvar_i_n : Printing only first  50 k-points.
           kptopt           2
         kptrlatt        6    0    0      0    6    0      0    0    6
          kptrlen      5.75486009E+01
P           mkmem           4
            natom          12
            nband          50
            ngfft          45      45      45
             nkpt         112
            nstep         100
             nsym           2
           ntypat           2
              occ      2.000000  2.000000  2.000000  2.000000  2.000000  2.000000
[...]
   0.15729    0.15729    0.16656    0.16656    0.19918    0.19918    0.20562    0.20563
   0.21326    0.21327    0.23245    0.23246    0.25844    0.25844    0.26550    0.26550
   0.45914    0.45925
 kpt#  44, nband= 50, wtk=  0.00926, kpt= -0.1667  0.5000  0.1667 (reduced coord)
  -1.94287   -1.94287   -1.94262   -1.94262   -0.80060   -0.80060   -0.79809   -0.79809
  -0.79661   -0.79661   -0.79118   -0.79118   -0.79021   -0.79020   -0.78935   -0.78935
  -0.35535   -0.35534   -0.33246   -0.33246   -0.32178   -0.32178   -0.31487   -0.31487
   0.10539    0.10539    0.11229    0.11229    0.12349    0.12349    0.12879    0.12880
   0.14998    0.14999    0.17786    0.17786    0.19676    0.19678    0.20232    0.20232
   0.23163    0.23164    0.24850    0.24850    0.25492    0.25492    0.26773    0.26773
   0.46543    0.46551
 kpt#  45, nband= 50, wtk=  0.00926, kpt=  0.0000 -0.3333  0.1667 (reduced coord)
  -1.94306   -1.94273   -1.94262   -1.94259   -0.80157   -0.80125   -0.80064   -0.79700
  -0.79477   -0.79307   -0.79262   -0.79136   -0.79127   -0.79106   -0.78863   -0.78855
  -0.37397   -0.33760   -0.33079   -0.32734   -0.32579   -0.32188   -0.32108   -0.30824
   0.08610    0.08679    0.10225    0.11025    0.11495    0.12877    0.13669    0.14011
   0.14130    0.15777    0.16853    0.17922    0.19393    0.20273    0.21282    0.22989
   0.23504    0.23802    0.24916    0.25062    0.25112    0.26419    0.26709    0.26867
   0.46472    0.46918
 kpt#  46, nband= 50, wtk=  0.00926, kpt=  0.1667 -0.3333  0.1667 (reduced coord)
  -1.94302   -1.94272   -1.94263   -1.94262   -0.80158   -0.80148   -0.80093   -0.79581
  -0.79535   -0.79466   -0.79268   -0.79116   -0.79064   -0.79058   -0.78906   -0.78790
  -0.37121   -0.33867   -0.33386   -0.33038   -0.32312   -0.32164   -0.31986   -0.30901
   0.08931    0.09462    0.10520    0.11023    0.11905    0.12828    0.13746    0.13893
   0.14527    0.16242    0.16672    0.16935    0.19409    0.20814    0.21173    0.22914
   0.23074    0.23210    0.24761    0.24817    0.25307    0.25323    0.26489    0.26824
   0.46192    0.46898
 kpt#  47, nband= 50, wtk=  0.00926, kpt=  0.3333 -0.3333  0.1667 (reduced coord)
  -1.94294   -1.94270   -1.94270   -1.94265   -0.80151   -0.80144   -0.80133   -0.79764
  -0.79548   -0.79362   -0.79350   -0.79022   -0.79012   -0.78983   -0.78951   -0.78768
  -0.36340   -0.34034   -0.33965   -0.33772   -0.32016   -0.31897   -0.31829   -0.31122
   0.09847    0.11069    0.11126    0.11257    0.12820    0.13074    0.13205    0.14151
   0.15366    0.15636    0.16081    0.17959    0.19043    0.20444    0.21038    0.21290
   0.21802    0.23114    0.23272    0.23581    0.25532    0.25873    0.26204    0.26680
   0.45949    0.46627
 kpt#  48, nband= 50, wtk=  0.00926, kpt=  0.5000 -0.3333  0.1667 (reduced coord)
  -1.94282   -1.94282   -1.94268   -1.94268   -0.80155   -0.80155   -0.80007   -0.80007
  -0.79474   -0.79474   -0.79163   -0.79163   -0.78941   -0.78941   -0.78855   -0.78855
  -0.35210   -0.35210   -0.33996   -0.33996   -0.31877   -0.31877   -0.31455   -0.31455
   0.10970    0.10970    0.11379    0.11379    0.13376    0.13376    0.13919    0.13919
   0.15777    0.15777    0.16544    0.16544    0.19761    0.19761    0.20677    0.20677
   0.21490    0.21490    0.23165    0.23165    0.25894    0.25895    0.26495    0.26495
   0.46154    0.46174
 kpt#  49, nband= 50, wtk=  0.00926, kpt= -0.3333 -0.3333  0.1667 (reduced coord)
  -1.94294   -1.94270   -1.94270   -1.94265   -0.80151   -0.80144   -0.80133   -0.79764
  -0.79548   -0.79362   -0.79350   -0.79022   -0.79012   -0.78983   -0.78951   -0.78768
  -0.36340   -0.34034   -0.33965   -0.33772   -0.32016   -0.31897   -0.31828   -0.31122
   0.09847    0.11069    0.11126    0.11257    0.12820    0.13074    0.13205    0.14151
   0.15366    0.15636    0.16081    0.17959    0.19043    0.20444    0.21038    0.21290
   0.21802    0.23114    0.23272    0.23581    0.25532    0.25873    0.26204    0.26680
   0.45950    0.46789
 kpt#  50, nband= 50, wtk=  0.00926, kpt= -0.1667 -0.3333  0.1667 (reduced coord)
  -1.94302   -1.94272   -1.94263   -1.94262   -0.80158   -0.80148   -0.80093   -0.79581
  -0.79535   -0.79465   -0.79268   -0.79116   -0.79064   -0.79058   -0.78906   -0.78790
  -0.37121   -0.33867   -0.33386   -0.33038   -0.32312   -0.32163   -0.31986   -0.30901
   0.08931    0.09462    0.10520    0.11023    0.11905    0.12828    0.13746    0.13893
   0.14527    0.16242    0.16672    0.16935    0.19409    0.20814    0.21173    0.22914
   0.23074    0.23210    0.24761    0.24817    0.25307    0.25324    0.26489    0.26824
   0.46192    0.46909
 prteigrs : prtvol=0 or 1, do not print more k-points.

 Total charge density [el/Bohr^3]
      Maximum=    9.2157E-01  at reduced coord.    0.2667    0.2000    0.6667
 Next maximum=    9.2157E-01  at reduced coord.    0.7333    0.2000    0.3333
      Minimum=    3.5250E-03  at reduced coord.    0.0000    0.9778    0.4889
 Next minimum=    3.5250E-03  at reduced coord.    0.0000    0.9778    0.5111
   Integrated=    9.6000E+01

 Cartesian components of stress tensor (hartree/bohr^3)
  sigma(1 1)= -1.85647674E-04  sigma(3 2)=  0.00000000E+00
  sigma(2 2)= -1.90752486E-04  sigma(3 1)= -3.11299377E-09
  sigma(3 3)= -4.85738114E-04  sigma(2 1)=  0.00000000E+00

-Cartesian components of stress tensor (GPa)         [Pressure=  8.4550E+00 GPa]
- sigma(1 1)= -5.46194221E+00  sigma(3 2)=  0.00000000E+00
- sigma(2 2)= -5.61213094E+00  sigma(3 1)= -9.15874233E-05
- sigma(3 3)= -1.42909063E+01  sigma(2 1)=  0.00000000E+00

== END DATASET(S) ==============================================================

 -outvars: echo values of variables after computation  --------

 These variables are accessible in NetCDF format (o_OUT.nc)

            acell      9.5914334888E+00  9.5914334888E+00  9.5914334888E+00 Bohr
              amu      1.78490000E+02  1.59994000E+01
          chkprim           0
             ecut      2.50000000E+01 Hartree
           ecutsm      5.00000000E-01 Hartree
           etotal     -3.5863372991E+02
            fcart      0.0000000000E+00 -2.3565344555E-03  0.0000000000E+00
                       0.0000000000E+00 -2.3476208040E-03  0.0000000000E+00
                       0.0000000000E+00 -2.3556200536E-03  0.0000000000E+00
                       0.0000000000E+00 -2.3485447784E-03  0.0000000000E+00
                      -2.5129753006E-04  1.1774132305E-03 -4.0799501180E-05
                      -2.5956895563E-04  1.1767696797E-03  4.6676033009E-05
                       2.6282743964E-04  1.1764938131E-03  4.2225750471E-05
                       2.6366054282E-04  1.1734833224E-03 -4.7983626193E-05
                       2.5129753006E-04  1.1774132305E-03  4.0799501180E-05
                       2.5956895563E-04  1.1767696797E-03 -4.6676033009E-05
                      -2.6282743964E-04  1.1764938131E-03 -4.2225750471E-05
                      -2.6366054282E-04  1.1734833224E-03  4.7983626193E-05
-          fftalg         512
           istwfk        2    0    0    3    0    0    0    0    0    0
                         0    0    0    0    0    0    6    0    0    7
                         0    0    0    0    0    0    0    0    0    0
                         0    0    0    0    0    0    0    0    0    0
                         0    0    0    0    0    0    0    0    0    0
                       outvar_i_n : Printing only first  50 k-points.
              ixc          11
              kpt      0.00000000E+00  0.00000000E+00  0.00000000E+00
                       1.66666667E-01  0.00000000E+00  0.00000000E+00
                       3.33333333E-01  0.00000000E+00  0.00000000E+00
                       5.00000000E-01  0.00000000E+00  0.00000000E+00
                       0.00000000E+00  1.66666667E-01  0.00000000E+00
                       1.66666667E-01  1.66666667E-01  0.00000000E+00
                       3.33333333E-01  1.66666667E-01  0.00000000E+00
                       5.00000000E-01  1.66666667E-01  0.00000000E+00
                      -3.33333333E-01  1.66666667E-01  0.00000000E+00
                      -1.66666667E-01  1.66666667E-01  0.00000000E+00
                       0.00000000E+00  3.33333333E-01  0.00000000E+00
                       1.66666667E-01  3.33333333E-01  0.00000000E+00
                       3.33333333E-01  3.33333333E-01  0.00000000E+00
                       5.00000000E-01  3.33333333E-01  0.00000000E+00
                      -3.33333333E-01  3.33333333E-01  0.00000000E+00
                      -1.66666667E-01  3.33333333E-01  0.00000000E+00
                       0.00000000E+00  5.00000000E-01  0.00000000E+00
                       1.66666667E-01  5.00000000E-01  0.00000000E+00
                       3.33333333E-01  5.00000000E-01  0.00000000E+00
                       5.00000000E-01  5.00000000E-01  0.00000000E+00
                       0.00000000E+00  0.00000000E+00  1.66666667E-01
                       1.66666667E-01  0.00000000E+00  1.66666667E-01
                       3.33333333E-01  0.00000000E+00  1.66666667E-01
                       5.00000000E-01  0.00000000E+00  1.66666667E-01
                      -3.33333333E-01  0.00000000E+00  1.66666667E-01
                      -1.66666667E-01  0.00000000E+00  1.66666667E-01
                       0.00000000E+00  1.66666667E-01  1.66666667E-01
                       1.66666667E-01  1.66666667E-01  1.66666667E-01
                       3.33333333E-01  1.66666667E-01  1.66666667E-01
                       5.00000000E-01  1.66666667E-01  1.66666667E-01
                      -3.33333333E-01  1.66666667E-01  1.66666667E-01
                      -1.66666667E-01  1.66666667E-01  1.66666667E-01
                       0.00000000E+00  3.33333333E-01  1.66666667E-01
                       1.66666667E-01  3.33333333E-01  1.66666667E-01
                       3.33333333E-01  3.33333333E-01  1.66666667E-01
                       5.00000000E-01  3.33333333E-01  1.66666667E-01
                      -3.33333333E-01  3.33333333E-01  1.66666667E-01
                      -1.66666667E-01  3.33333333E-01  1.66666667E-01
                       0.00000000E+00  5.00000000E-01  1.66666667E-01
                       1.66666667E-01  5.00000000E-01  1.66666667E-01
                       3.33333333E-01  5.00000000E-01  1.66666667E-01
                       5.00000000E-01  5.00000000E-01  1.66666667E-01
                      -3.33333333E-01  5.00000000E-01  1.66666667E-01
                      -1.66666667E-01  5.00000000E-01  1.66666667E-01
                       0.00000000E+00 -3.33333333E-01  1.66666667E-01
                       1.66666667E-01 -3.33333333E-01  1.66666667E-01
                       3.33333333E-01 -3.33333333E-01  1.66666667E-01
                       5.00000000E-01 -3.33333333E-01  1.66666667E-01
                      -3.33333333E-01 -3.33333333E-01  1.66666667E-01
                      -1.66666667E-01 -3.33333333E-01  1.66666667E-01
                       outvar_i_n : Printing only first  50 k-points.
           kptopt           2
         kptrlatt        6    0    0      0    6    0      0    0    6
          kptrlen      5.75486009E+01
P           mkmem           4
            natom          12
            nband          50
            ngfft          45      45      45
             nkpt         112
            nstep         100
             nsym           2
           ntypat           2
              occ      2.000000  2.000000  2.000000  2.000000  2.000000  2.000000
                       2.000000  2.000000  2.000000  2.000000  2.000000  2.000000
                       2.000000  2.000000  2.000000  2.000000  2.000000  2.000000
                       2.000000  2.000000  2.000000  2.000000  2.000000  2.000000
                       2.000000  2.000000  2.000000  2.000000  2.000000  2.000000
                       2.000000  2.000000  2.000000  2.000000  2.000000  2.000000
                       2.000000  2.000000  2.000000  2.000000  2.000000  2.000000
                       2.000000  2.000000  2.000000  2.000000  2.000000  2.000000
                       0.000000  0.000000
        pawecutdg      2.50000000E+01 Hartree
         pawxcdev           0
           strten     -1.8564767362E-04 -1.9075248562E-04 -4.8573811365E-04
                       0.0000000000E+00 -3.1129937674E-09  0.0000000000E+00
        symmorphi           0
           symrel      1  0  0   0  1  0   0  0  1      -1  0  0   0  1  0   0  0 -1
           tolmxf      1.00000000E-05
           tolvrs      1.00000000E-18
           tsmear      4.00000000E-02 Hartree
            typat      1  1  1  1  2  2  2  2  2  2  2  2
              wtk        0.00463    0.00926    0.00926    0.00463    0.00926    0.00926
                         0.00926    0.00926    0.00926    0.00926    0.00926    0.00926
                         0.00926    0.00926    0.00926    0.00926    0.00463    0.00926
                         0.00926    0.00463    0.00926    0.00926    0.00926    0.00926
                         0.00926    0.00926    0.00926    0.00926    0.00926    0.00926
                         0.00926    0.00926    0.00926    0.00926    0.00926    0.00926
                         0.00926    0.00926    0.00926    0.00926    0.00926    0.00926
                         0.00926    0.00926    0.00926    0.00926    0.00926    0.00926
                         0.00926    0.00926
                       outvars : Printing only first  50 k-points.
           xangst      0.0000000000E+00  3.7559203200E-06  0.0000000000E+00
                       0.0000000000E+00  2.5377877559E+00  2.5377840000E+00
                       2.5377840000E+00  3.7559203200E-06  2.5377840000E+00
                       2.5377840000E+00  2.5377877559E+00  0.0000000000E+00
                       1.2116114616E+00  1.1923753127E+00  3.5543954255E+00
                       1.2116114616E+00  3.7301593127E+00  4.0589565745E+00
                       1.3261725384E+00  3.7301593127E+00  1.5211725745E+00
                       1.3261725384E+00  1.1923753127E+00  1.0166114255E+00
                       3.8639565384E+00  1.1923753127E+00  1.5211725745E+00
                       3.8639565384E+00  3.7301593127E+00  1.0166114255E+00
                       3.7493954616E+00  3.7301593127E+00  3.5543954255E+00
                       3.7493954616E+00  1.1923753127E+00  4.0589565745E+00
            xcart      0.0000000000E+00  7.0976607817E-06  0.0000000000E+00
                       0.0000000000E+00  4.7957238421E+00  4.7957167444E+00
                       4.7957167444E+00  7.0976607817E-06  4.7957167444E+00
                       4.7957167444E+00  4.7957238421E+00  0.0000000000E+00
                       2.2896138419E+00  2.2532627886E+00  6.7168339222E+00
                       2.2896138419E+00  7.0489795330E+00  7.6703163111E+00
                       2.5061029025E+00  7.0489795330E+00  2.8745995667E+00
                       2.5061029025E+00  2.2532627886E+00  1.9211171777E+00
                       7.3018196469E+00  2.2532627886E+00  2.8745995667E+00
                       7.3018196469E+00  7.0489795330E+00  1.9211171777E+00
                       7.0853305864E+00  7.0489795330E+00  6.7168339222E+00
                       7.0853305864E+00  2.2532627886E+00  7.6703163111E+00
             xred      0.0000000000E+00  7.3999999999E-07  0.0000000000E+00
                       0.0000000000E+00  5.0000074000E-01  5.0000000000E-01
                       5.0000000000E-01  7.3999999999E-07  5.0000000000E-01
                       5.0000000000E-01  5.0000074000E-01  0.0000000000E+00
                       2.3871445750E-01  2.3492450750E-01  7.0029510500E-01
                       2.3871445750E-01  7.3492450750E-01  7.9970489500E-01
                       2.6128554250E-01  7.3492450750E-01  2.9970489500E-01
                       2.6128554250E-01  2.3492450750E-01  2.0029510500E-01
                       7.6128554250E-01  2.3492450750E-01  2.9970489500E-01
                       7.6128554250E-01  7.3492450750E-01  2.0029510500E-01
                       7.3871445750E-01  7.3492450750E-01  7.0029510500E-01
                       7.3871445750E-01  2.3492450750E-01  7.9970489500E-01
            znucl       72.00000    8.00000

 Suggested references for the acknowledgment of ABINIT usage.

 Calculation completed.
.Delivered   0 WARNINGs and   0 COMMENTs to log file.

--- !FinalSummary
program: abinit
version: 9.4.1
start_datetime: Fri Jul 02 15:52:35 2021
end_datetime: Fri Jul 02 15:54:32 2021
overall_cpu_time:        4180.6
overall_wall_time:        4232.9
exit_requested_by_user: no
timelimit: 0
pseudos:
    Hf  : 611100caaa846416f88940b772f7c8bf
    O   : 733e923716a9eadd6cde8fc80d866281
usepaw: 0
mpi_procs: 36
omp_threads: 1
num_warnings: 0
num_comments: 0
...