.Version 9.4.1 of ABINIT

 ABINIT is a project of the Universite Catholique de Louvain,
 Corning Inc. and other collaborators, see ~abinit/doc/developers/contributors.txt .
 acknowledgments of the ABINIT effort.

.Starting date : Fri  2 Jul 2021.
- ( at 15h54 )

- input  file    -> PATH12
- output file    -> PATH12.abo
- root for input  files -> i
- root for output files -> o

 Symmetries : space group P2 (#  3); Bravais mP (primitive monocl.)
     intxc =       0    ionmov =       0      iscf =       7    lmnmax =       8
     lnmax =       8     mgfft =      45  mpssoang =       4    mqgrid =    3001
     natom =      12  nloc_mem =       1    nspden =       1   nspinor =       1
    nsppol =       1      nsym =       2    n1xccc =    2501    ntypat =       2
    occopt =       1   xclevel =       2
-    mband =          50        mffmem =           1         mkmem =           4
       mpw =        5280          nfft =       91125          nkpt =         112
  Rough estimation (10% accuracy) of disk space for files :

------------- Echo of variables that govern the present computation ------------
-
- outvars: echo of selected default values
-   iomode0 =  3 , fftalg0 =512 , wfoptalg0 =  0
-
- outvars: echo of global parameters not present in the input file
-  max_nthreads =    0
-
 -outvars: echo values of preprocessed input variables --------
            acell      9.5914334888E+00  9.5914334888E+00  9.5914334888E+00 Bohr
              amu      1.78490000E+02  1.59994000E+01
          chkprim           0
             ecut      2.50000000E+01 Hartree
           ecutsm      5.00000000E-01 Hartree
-          fftalg         512
           istwfk        2    0    0    3    0    0    0    0    0    0
                         0    0    0    0    0    0    6    0    0    7
                         0    0    0    0    0    0    0    0    0    0
                         0    0    0    0    0    0    0    0    0    0
                         0    0    0    0    0    0    0    0    0    0
                       outvar_i_n : Printing only first  50 k-points.
              ixc          11
              kpt      0.00000000E+00  0.00000000E+00  0.00000000E+00
                       1.66666667E-01  0.00000000E+00  0.00000000E+00
                       3.33333333E-01  0.00000000E+00  0.00000000E+00
                       5.00000000E-01  0.00000000E+00  0.00000000E+00
                       0.00000000E+00  1.66666667E-01  0.00000000E+00
                       1.66666667E-01  1.66666667E-01  0.00000000E+00
                       3.33333333E-01  1.66666667E-01  0.00000000E+00
                       5.00000000E-01  1.66666667E-01  0.00000000E+00
                      -3.33333333E-01  1.66666667E-01  0.00000000E+00
                      -1.66666667E-01  1.66666667E-01  0.00000000E+00
                       0.00000000E+00  3.33333333E-01  0.00000000E+00
                       1.66666667E-01  3.33333333E-01  0.00000000E+00
                       3.33333333E-01  3.33333333E-01  0.00000000E+00
                       5.00000000E-01  3.33333333E-01  0.00000000E+00
                      -3.33333333E-01  3.33333333E-01  0.00000000E+00
                      -1.66666667E-01  3.33333333E-01  0.00000000E+00
                       0.00000000E+00  5.00000000E-01  0.00000000E+00
                       1.66666667E-01  5.00000000E-01  0.00000000E+00
                       3.33333333E-01  5.00000000E-01  0.00000000E+00
                       5.00000000E-01  5.00000000E-01  0.00000000E+00
                       0.00000000E+00  0.00000000E+00  1.66666667E-01
                       1.66666667E-01  0.00000000E+00  1.66666667E-01
                       3.33333333E-01  0.00000000E+00  1.66666667E-01
                       5.00000000E-01  0.00000000E+00  1.66666667E-01
                      -3.33333333E-01  0.00000000E+00  1.66666667E-01
                      -1.66666667E-01  0.00000000E+00  1.66666667E-01
                       0.00000000E+00  1.66666667E-01  1.66666667E-01
                       1.66666667E-01  1.66666667E-01  1.66666667E-01
                       3.33333333E-01  1.66666667E-01  1.66666667E-01
                       5.00000000E-01  1.66666667E-01  1.66666667E-01
                      -3.33333333E-01  1.66666667E-01  1.66666667E-01
                      -1.66666667E-01  1.66666667E-01  1.66666667E-01
                       0.00000000E+00  3.33333333E-01  1.66666667E-01
                       1.66666667E-01  3.33333333E-01  1.66666667E-01
                       3.33333333E-01  3.33333333E-01  1.66666667E-01
                       5.00000000E-01  3.33333333E-01  1.66666667E-01
                      -3.33333333E-01  3.33333333E-01  1.66666667E-01
                      -1.66666667E-01  3.33333333E-01  1.66666667E-01
                       0.00000000E+00  5.00000000E-01  1.66666667E-01
                       1.66666667E-01  5.00000000E-01  1.66666667E-01
                       3.33333333E-01  5.00000000E-01  1.66666667E-01
                       5.00000000E-01  5.00000000E-01  1.66666667E-01
                      -3.33333333E-01  5.00000000E-01  1.66666667E-01
                      -1.66666667E-01  5.00000000E-01  1.66666667E-01
                       0.00000000E+00 -3.33333333E-01  1.66666667E-01
                       1.66666667E-01 -3.33333333E-01  1.66666667E-01
                       3.33333333E-01 -3.33333333E-01  1.66666667E-01
                       5.00000000E-01 -3.33333333E-01  1.66666667E-01
                      -3.33333333E-01 -3.33333333E-01  1.66666667E-01
                      -1.66666667E-01 -3.33333333E-01  1.66666667E-01
                       outvar_i_n : Printing only first  50 k-points.
           kptopt           2
         kptrlatt        6    0    0      0    6    0      0    0    6
          kptrlen      5.75486009E+01
P           mkmem           4
            natom          12
            nband          50
            ngfft          45      45      45
             nkpt         112
            nstep         100
             nsym           2
           ntypat           2
              occ      2.000000  2.000000  2.000000  2.000000  2.000000  2.000000
                       2.000000  2.000000  2.000000  2.000000  2.000000  2.000000
                       2.000000  2.000000  2.000000  2.000000  2.000000  2.000000
                       2.000000  2.000000  2.000000  2.000000  2.000000  2.000000
                       2.000000  2.000000  2.000000  2.000000  2.000000  2.000000
                       2.000000  2.000000  2.000000  2.000000  2.000000  2.000000
                       2.000000  2.000000  2.000000  2.000000  2.000000  2.000000
                       2.000000  2.000000  2.000000  2.000000  2.000000  2.000000
                       0.000000  0.000000
        pawecutdg      2.50000000E+01 Hartree
         pawxcdev           0
          spgroup           3
        symmorphi           0
           symrel      1  0  0   0  1  0   0  0  1      -1  0  0   0  1  0   0  0 -1
           tolmxf      1.00000000E-05
           tolvrs      1.00000000E-18
           tsmear      4.00000000E-02 Hartree
            typat      1  1  1  1  2  2  2  2  2  2  2  2
              wtk        0.00463    0.00926    0.00926    0.00463    0.00926    0.00926
                         0.00926    0.00926    0.00926    0.00926    0.00926    0.00926
                         0.00926    0.00926    0.00926    0.00926    0.00463    0.00926
                         0.00926    0.00463    0.00926    0.00926    0.00926    0.00926
                         0.00926    0.00926    0.00926    0.00926    0.00926    0.00926
                         0.00926    0.00926    0.00926    0.00926    0.00926    0.00926
                         0.00926    0.00926    0.00926    0.00926    0.00926    0.00926
                         0.00926    0.00926    0.00926    0.00926    0.00926    0.00926
                         0.00926    0.00926
                       outvars : Printing only first  50 k-points.
           xangst      0.0000000000E+00  0.0000000000E+00  0.0000000000E+00
                       0.0000000000E+00  2.5377866393E+00  2.5377840000E+00
                       2.5377840000E+00  1.9134891360E-05  2.5377840000E+00
                       2.5377840000E+00  2.5378151640E+00  0.0000000000E+00
                       1.1926598110E+00  1.1667620298E+00  3.5496152809E+00
                       1.1927399034E+00  3.7045460298E+00  4.0637114935E+00
                       1.3450505933E+00  3.7047396119E+00  1.5259253618E+00
                       1.3451176416E+00  1.1669556119E+00  1.0118333619E+00
                       3.8829081890E+00  1.1667620298E+00  1.5259527191E+00
                       3.8828280966E+00  3.7045460298E+00  1.0118565065E+00
                       3.7305174067E+00  3.7047396119E+00  3.5496426382E+00
                       3.7304503584E+00  1.1669556119E+00  4.0637346381E+00
            xcart      0.0000000000E+00  0.0000000000E+00  0.0000000000E+00
                       0.0000000000E+00  4.7957217320E+00  4.7957167444E+00
                       4.7957167444E+00  3.6159704253E-05  4.7957167444E+00
                       4.7957167444E+00  4.7957756358E+00  0.0000000000E+00
                       2.2538004124E+00  2.2048606985E+00  6.7078007581E+00
                       2.2539517652E+00  7.0005774429E+00  7.6793018058E+00
                       2.5417772562E+00  7.0009432602E+00  2.8835810329E+00
                       2.5419039591E+00  2.2052265158E+00  1.9120879461E+00
                       7.3376330764E+00  2.2048606985E+00  2.8836327308E+00
                       7.3374817236E+00  7.0005774429E+00  1.9121316831E+00
                       7.0496562326E+00  7.0009432602E+00  6.7078524559E+00
                       7.0495295298E+00  2.2052265158E+00  7.6793455427E+00
             xred      0.0000000000E+00  0.0000000000E+00  0.0000000000E+00
                       0.0000000000E+00  5.0000052000E-01  5.0000000000E-01
                       5.0000000000E-01  3.7700000000E-06  5.0000000000E-01
                       5.0000000000E-01  5.0000614000E-01  0.0000000000E+00
                       2.3498056000E-01  2.2987812000E-01  6.9935331000E-01
                       2.3499634000E-01  7.2987812000E-01  8.0064172000E-01
                       2.6500494000E-01  7.2991626000E-01  3.0064130000E-01
                       2.6501815000E-01  2.2991626000E-01  1.9935372000E-01
                       7.6501944000E-01  2.2987812000E-01  3.0064669000E-01
                       7.6500366000E-01  7.2987812000E-01  1.9935828000E-01
                       7.3499506000E-01  7.2991626000E-01  6.9935870000E-01
                       7.3498185000E-01  2.2991626000E-01  8.0064628000E-01
            znucl       72.00000    8.00000

 chkinp: Checking input parameters for consistency.

== DATASET  1 ==================================================================
-   mpi_nproc: 36, omp_nthreads: -1 (-1 if OMP is not activated)
-    --> not optimal distribution: autoparal keyword recommended in input file <--

--- !DatasetInfo
iteration_state: {dtset: 1, }
dimensions: {natom: 12, nkpt: 112, mband: 50, nsppol: 1, nspinor: 1, nspden: 1, mpw: 5280, }
[...]
       0.765003660000      0.729878120000      0.199358280000
       0.734995060000      0.729916260000      0.699358700000
       0.734981850000      0.229916260000      0.800646280000
 rms dE/dt=  1.3325E-02; max dE/dt=  3.2405E-02; dE/dt below (all hartree)
    1       0.000000000000      0.032405304835      0.000000000000
    2       0.000000000000      0.032333495286      0.000000000000
    3       0.000000000000      0.032396775707      0.000000000000
    4       0.000000000000      0.032375011743      0.000000000000
    5       0.003738468370     -0.016060184840      0.000760426996
    6       0.003827445026     -0.016358640304     -0.000840632174
    7      -0.003446965491     -0.016216294590     -0.000796655151
    8      -0.003414089775     -0.015999852408      0.000853097762
    9      -0.003738468370     -0.016060184840     -0.000760426996
   10      -0.003827445026     -0.016358640304      0.000840632174
   11       0.003446965491     -0.016216294590      0.000796655151
   12       0.003414089775     -0.015999852408     -0.000853097762

 cartesian coordinates (angstrom) at end:
    1      0.00000000000000     0.00000000000000     0.00000000000000
    2      0.00000000000000     2.53778663929536     2.53778400000000
    3      2.53778400000000     0.00001913489136     2.53778400000000
    4      2.53778400000000     2.53781516398752     0.00000000000000
    5      1.19265981095808     1.16676202977216     3.54961528093008
    6      1.19273990342112     3.70454602977216     4.06371149349696
    7      1.34505059330592     3.70473961193568     1.52592536175840
    8      1.34511764155920     1.16695561193568     1.01183336191296
    9      3.88290818904192     1.16676202977216     1.52595271906992
   10      3.88282809657888     3.70454602977216     1.01185650650304
   11      3.73051740669408     3.70473961193568     3.54964263824160
   12      3.73045035844080     1.16695561193568     4.06373463808704

 cartesian forces (hartree/bohr) at end:
    1      0.00000000000000    -0.00337647665135     0.00000000000000
    2      0.00000000000000    -0.00336898980908     0.00000000000000
    3      0.00000000000000    -0.00337558740697     0.00000000000000
    4      0.00000000000000    -0.00337331830257     0.00000000000000
    5     -0.00038977159927     0.00167652087315    -0.00007928189225
    6     -0.00039904827888     0.00170763775094     0.00008764406016
    7      0.00035937959582     0.00169279682916     0.00008305902891
    8      0.00035595198349     0.00167023063174    -0.00008894371867
    9      0.00038977159927     0.00167652087315     0.00007928189225
   10      0.00039904827888     0.00170763775094    -0.00008764406016
   11     -0.00035937959582     0.00169279682916    -0.00008305902891
   12     -0.00035595198349     0.00167023063174     0.00008894371867
 frms,max,avg= 1.3892454E-03 3.3764767E-03   0.000E+00 -2.091E-06  0.000E+00 h/b

 cartesian forces (eV/Angstrom) at end:
    1      0.00000000000000    -0.17362539573277     0.00000000000000
    2      0.00000000000000    -0.17324040685656     0.00000000000000
    3      0.00000000000000    -0.17357966895217     0.00000000000000
    4      0.00000000000000    -0.17346298692210     0.00000000000000
    5     -0.02004285980838     0.08621016228197    -0.00407683847323
    6     -0.02051988581315     0.08781025633830     0.00450683840012
    7      0.01848004028647     0.08704710552058     0.00427106663354
    8      0.01830378538830     0.08588670509095    -0.00457366952194
    9      0.02004285980838     0.08621016228197     0.00407683847323
   10      0.02051988581315     0.08781025633830    -0.00450683840012
   11     -0.01848004028647     0.08704710552058    -0.00427106663354
   12     -0.01830378538830     0.08588670509095     0.00457366952194
 frms,max,avg= 7.1437866E-02 1.7362540E-01   0.000E+00 -1.075E-04  0.000E+00 e/A
 length scales=  9.591433488838  9.591433488838  9.591433488838 bohr
              =  5.075568000000  5.075568000000  5.075568000000 angstroms
 prteigrs : about to open file o_EIG
 Fermi (or HOMO) energy (hartree) =   0.27653   Average Vxc (hartree)=  -0.44593
 Eigenvalues (hartree) for nkpt= 112  k points:
 kpt#   1, nband= 50, wtk=  0.00463, kpt=  0.0000  0.0000  0.0000 (reduced coord)
  -1.94296   -1.94229   -1.94226   -1.94225   -0.80499   -0.80487   -0.80460   -0.79368
  -0.79277   -0.79240   -0.79161   -0.79145   -0.79115   -0.78796   -0.78660   -0.78656
  -0.39524   -0.33817   -0.33019   -0.32870   -0.31886   -0.31670   -0.31545   -0.29901
   0.06071    0.06110    0.07233    0.09608    0.10342    0.10458    0.15973    0.16343
   0.16657    0.17015    0.17183    0.17185    0.21692    0.22294    0.22443    0.22957
   0.24278    0.25116    0.25244    0.25401    0.25512    0.26561    0.26971    0.27518
   0.44642    0.44721
 prteigrs : prtvol=0 or 1, do not print more k-points.

--- !EnergyTerms
iteration_state     : {dtset: 1, }
comment             : Components of total free energy in Hartree
kinetic             :  1.46254171697738E+02
hartree             :  5.60326775045089E+01
xc                  : -9.09178586714078E+01
Ewald energy        : -2.70029447347581E+02
psp_core            :  1.49595106529080E+01
local_psp           : -2.05811454466253E+02
non_local_psp       : -9.12087476689466E+00
total_energy        : -3.58633275396981E+02
total_energy_eV     : -9.75890772179635E+03
band_energy         : -3.11190490412496E+01
...

 Cartesian components of stress tensor (hartree/bohr^3)
  sigma(1 1)= -1.96767254E-04  sigma(3 2)=  0.00000000E+00
  sigma(2 2)= -2.03662064E-04  sigma(3 1)= -8.64793103E-09
  sigma(3 3)= -4.93447186E-04  sigma(2 1)=  0.00000000E+00

-Cartesian components of stress tensor (GPa)         [Pressure=  8.7663E+00 GPa]
- sigma(1 1)= -5.78909151E+00  sigma(3 2)=  0.00000000E+00
- sigma(2 2)= -5.99194379E+00  sigma(3 1)= -2.54430872E-04
- sigma(3 3)= -1.45177150E+01  sigma(2 1)=  0.00000000E+00

== END DATASET(S) ==============================================================

 -outvars: echo values of variables after computation  --------
            acell      9.5914334888E+00  9.5914334888E+00  9.5914334888E+00 Bohr
              amu      1.78490000E+02  1.59994000E+01
          chkprim           0
             ecut      2.50000000E+01 Hartree
           ecutsm      5.00000000E-01 Hartree
           etotal     -3.5863327540E+02
            fcart      0.0000000000E+00 -3.3764766513E-03  0.0000000000E+00
                       0.0000000000E+00 -3.3689898091E-03  0.0000000000E+00
                       0.0000000000E+00 -3.3755874070E-03  0.0000000000E+00
                       0.0000000000E+00 -3.3733183026E-03  0.0000000000E+00
                      -3.8977159927E-04  1.6765208731E-03 -7.9281892249E-05
                      -3.9904827888E-04  1.7076377509E-03  8.7644060163E-05
                       3.5937959582E-04  1.6927968292E-03  8.3059028915E-05
                       3.5595198349E-04  1.6702306317E-03 -8.8943718669E-05
                       3.8977159927E-04  1.6765208731E-03  7.9281892249E-05
                       3.9904827888E-04  1.7076377509E-03 -8.7644060163E-05
                      -3.5937959582E-04  1.6927968292E-03 -8.3059028915E-05
                      -3.5595198349E-04  1.6702306317E-03  8.8943718669E-05
-          fftalg         512
           istwfk        2    0    0    3    0    0    0    0    0    0
                         0    0    0    0    0    0    6    0    0    7
                         0    0    0    0    0    0    0    0    0    0
                         0    0    0    0    0    0    0    0    0    0
                         0    0    0    0    0    0    0    0    0    0
                       outvar_i_n : Printing only first  50 k-points.
              ixc          11
              kpt      0.00000000E+00  0.00000000E+00  0.00000000E+00
                       1.66666667E-01  0.00000000E+00  0.00000000E+00
                       3.33333333E-01  0.00000000E+00  0.00000000E+00
                       5.00000000E-01  0.00000000E+00  0.00000000E+00
                       0.00000000E+00  1.66666667E-01  0.00000000E+00
                       1.66666667E-01  1.66666667E-01  0.00000000E+00
                       3.33333333E-01  1.66666667E-01  0.00000000E+00
                       5.00000000E-01  1.66666667E-01  0.00000000E+00
                      -3.33333333E-01  1.66666667E-01  0.00000000E+00
                      -1.66666667E-01  1.66666667E-01  0.00000000E+00
                       0.00000000E+00  3.33333333E-01  0.00000000E+00
                       1.66666667E-01  3.33333333E-01  0.00000000E+00
                       3.33333333E-01  3.33333333E-01  0.00000000E+00
                       5.00000000E-01  3.33333333E-01  0.00000000E+00
                      -3.33333333E-01  3.33333333E-01  0.00000000E+00
                      -1.66666667E-01  3.33333333E-01  0.00000000E+00
                       0.00000000E+00  5.00000000E-01  0.00000000E+00
                       1.66666667E-01  5.00000000E-01  0.00000000E+00
                       3.33333333E-01  5.00000000E-01  0.00000000E+00
                       5.00000000E-01  5.00000000E-01  0.00000000E+00
                       0.00000000E+00  0.00000000E+00  1.66666667E-01
                       1.66666667E-01  0.00000000E+00  1.66666667E-01
                       3.33333333E-01  0.00000000E+00  1.66666667E-01
                       5.00000000E-01  0.00000000E+00  1.66666667E-01
                      -3.33333333E-01  0.00000000E+00  1.66666667E-01
                      -1.66666667E-01  0.00000000E+00  1.66666667E-01
                       0.00000000E+00  1.66666667E-01  1.66666667E-01
                       1.66666667E-01  1.66666667E-01  1.66666667E-01
                       3.33333333E-01  1.66666667E-01  1.66666667E-01
                       5.00000000E-01  1.66666667E-01  1.66666667E-01
                      -3.33333333E-01  1.66666667E-01  1.66666667E-01
                      -1.66666667E-01  1.66666667E-01  1.66666667E-01
                       0.00000000E+00  3.33333333E-01  1.66666667E-01
                       1.66666667E-01  3.33333333E-01  1.66666667E-01
                       3.33333333E-01  3.33333333E-01  1.66666667E-01
                       5.00000000E-01  3.33333333E-01  1.66666667E-01
                      -3.33333333E-01  3.33333333E-01  1.66666667E-01
                      -1.66666667E-01  3.33333333E-01  1.66666667E-01
                       0.00000000E+00  5.00000000E-01  1.66666667E-01
                       1.66666667E-01  5.00000000E-01  1.66666667E-01
                       3.33333333E-01  5.00000000E-01  1.66666667E-01
                       5.00000000E-01  5.00000000E-01  1.66666667E-01
                      -3.33333333E-01  5.00000000E-01  1.66666667E-01
                      -1.66666667E-01  5.00000000E-01  1.66666667E-01
                       0.00000000E+00 -3.33333333E-01  1.66666667E-01
                       1.66666667E-01 -3.33333333E-01  1.66666667E-01
                       3.33333333E-01 -3.33333333E-01  1.66666667E-01
                       5.00000000E-01 -3.33333333E-01  1.66666667E-01
                      -3.33333333E-01 -3.33333333E-01  1.66666667E-01
                      -1.66666667E-01 -3.33333333E-01  1.66666667E-01
                       outvar_i_n : Printing only first  50 k-points.
           kptopt           2
         kptrlatt        6    0    0      0    6    0      0    0    6
          kptrlen      5.75486009E+01
P           mkmem           4
            natom          12
            nband          50
            ngfft          45      45      45
             nkpt         112
            nstep         100
             nsym           2
           ntypat           2
              occ      2.000000  2.000000  2.000000  2.000000  2.000000  2.000000
                       2.000000  2.000000  2.000000  2.000000  2.000000  2.000000
                       2.000000  2.000000  2.000000  2.000000  2.000000  2.000000
                       2.000000  2.000000  2.000000  2.000000  2.000000  2.000000
                       2.000000  2.000000  2.000000  2.000000  2.000000  2.000000
                       2.000000  2.000000  2.000000  2.000000  2.000000  2.000000
                       2.000000  2.000000  2.000000  2.000000  2.000000  2.000000
                       2.000000  2.000000  2.000000  2.000000  2.000000  2.000000
                       0.000000  0.000000
        pawecutdg      2.50000000E+01 Hartree
         pawxcdev           0
          spgroup           3
           strten     -1.9676725414E-04 -2.0366206413E-04 -4.9344718632E-04
                       0.0000000000E+00 -8.6479310304E-09  0.0000000000E+00
        symmorphi           0
           symrel      1  0  0   0  1  0   0  0  1      -1  0  0   0  1  0   0  0 -1
           tolmxf      1.00000000E-05
           tolvrs      1.00000000E-18
           tsmear      4.00000000E-02 Hartree
            typat      1  1  1  1  2  2  2  2  2  2  2  2
              wtk        0.00463    0.00926    0.00926    0.00463    0.00926    0.00926
                         0.00926    0.00926    0.00926    0.00926    0.00926    0.00926
                         0.00926    0.00926    0.00926    0.00926    0.00463    0.00926
                         0.00926    0.00463    0.00926    0.00926    0.00926    0.00926
                         0.00926    0.00926    0.00926    0.00926    0.00926    0.00926
                         0.00926    0.00926    0.00926    0.00926    0.00926    0.00926
                         0.00926    0.00926    0.00926    0.00926    0.00926    0.00926
                         0.00926    0.00926    0.00926    0.00926    0.00926    0.00926
                         0.00926    0.00926
                       outvars : Printing only first  50 k-points.
           xangst      0.0000000000E+00  0.0000000000E+00  0.0000000000E+00
                       0.0000000000E+00  2.5377866393E+00  2.5377840000E+00
                       2.5377840000E+00  1.9134891360E-05  2.5377840000E+00
                       2.5377840000E+00  2.5378151640E+00  0.0000000000E+00
                       1.1926598110E+00  1.1667620298E+00  3.5496152809E+00
                       1.1927399034E+00  3.7045460298E+00  4.0637114935E+00
                       1.3450505933E+00  3.7047396119E+00  1.5259253618E+00
                       1.3451176416E+00  1.1669556119E+00  1.0118333619E+00
                       3.8829081890E+00  1.1667620298E+00  1.5259527191E+00
                       3.8828280966E+00  3.7045460298E+00  1.0118565065E+00
                       3.7305174067E+00  3.7047396119E+00  3.5496426382E+00
                       3.7304503584E+00  1.1669556119E+00  4.0637346381E+00
            xcart      0.0000000000E+00  0.0000000000E+00  0.0000000000E+00
                       0.0000000000E+00  4.7957217320E+00  4.7957167444E+00
                       4.7957167444E+00  3.6159704253E-05  4.7957167444E+00
                       4.7957167444E+00  4.7957756358E+00  0.0000000000E+00
                       2.2538004124E+00  2.2048606985E+00  6.7078007581E+00
                       2.2539517652E+00  7.0005774429E+00  7.6793018058E+00
                       2.5417772562E+00  7.0009432602E+00  2.8835810329E+00
                       2.5419039591E+00  2.2052265158E+00  1.9120879461E+00
                       7.3376330764E+00  2.2048606985E+00  2.8836327308E+00
                       7.3374817236E+00  7.0005774429E+00  1.9121316831E+00
                       7.0496562326E+00  7.0009432602E+00  6.7078524559E+00
                       7.0495295298E+00  2.2052265158E+00  7.6793455427E+00
             xred      0.0000000000E+00  0.0000000000E+00  0.0000000000E+00
                       0.0000000000E+00  5.0000052000E-01  5.0000000000E-01
                       5.0000000000E-01  3.7700000000E-06  5.0000000000E-01
                       5.0000000000E-01  5.0000614000E-01  0.0000000000E+00
                       2.3498056000E-01  2.2987812000E-01  6.9935331000E-01
                       2.3499634000E-01  7.2987812000E-01  8.0064172000E-01
                       2.6500494000E-01  7.2991626000E-01  3.0064130000E-01
                       2.6501815000E-01  2.2991626000E-01  1.9935372000E-01
                       7.6501944000E-01  2.2987812000E-01  3.0064669000E-01
                       7.6500366000E-01  7.2987812000E-01  1.9935828000E-01
                       7.3499506000E-01  7.2991626000E-01  6.9935870000E-01
                       7.3498185000E-01  2.2991626000E-01  8.0064628000E-01
            znucl       72.00000    8.00000

- Timing analysis has been suppressed with timopt=0

 Suggested references for the acknowledgment of ABINIT usage.

 Calculation completed.
.Delivered   0 WARNINGs and   0 COMMENTs to log file.