.Version 9.4.1 of ABINIT

 ABINIT is a project of the Universite Catholique de Louvain,
 Corning Inc. and other collaborators, see ~abinit/doc/developers/contributors.txt .
 acknowledgments of the ABINIT effort.

.Starting date : Sat  3 Jul 2021.
- ( at 07h20 )

- input  file    -> PATH0
- output file    -> PATH0.abo
- root for input  files -> i
- root for output files -> o

 Symmetries : space group P-4 2 m (#111); Bravais tP (primitive tetrag.)
     intxc =       0    ionmov =       0      iscf =       7    lmnmax =       8
     lnmax =       8     mgfft =      45  mpssoang =       4    mqgrid =    3001
     natom =      12  nloc_mem =       1    nspden =       1   nspinor =       1
    nsppol =       1      nsym =       8    n1xccc =    2501    ntypat =       2
    occopt =       1   xclevel =       2
-    mband =          50        mffmem =           1         mkmem =           4
       mpw =        5280          nfft =       91125          nkpt =         112
  Rough estimation (10% accuracy) of disk space for files :

------------- Echo of variables that govern the present computation ------------
-
- outvars: echo of selected default values
-   iomode0 =  3 , fftalg0 =512 , wfoptalg0 =  0
-
- outvars: echo of global parameters not present in the input file
-  max_nthreads =    0
-
 -outvars: echo values of preprocessed input variables --------
            acell      9.5914334888E+00  9.5914334888E+00  9.5914334888E+00 Bohr
              amu      1.78490000E+02  1.59994000E+01
          chkprim           0
             ecut      2.50000000E+01 Hartree
           ecutsm      5.00000000E-01 Hartree
-          fftalg         512
           istwfk        2    0    0    3    0    0    0    0    0    0
                         0    0    0    0    0    0    6    0    0    7
                         0    0    0    0    0    0    0    0    0    0
                         0    0    0    0    0    0    0    0    0    0
                         0    0    0    0    0    0    0    0    0    0
                       outvar_i_n : Printing only first  50 k-points.
              ixc          11
              kpt      0.00000000E+00  0.00000000E+00  0.00000000E+00
                       1.66666667E-01  0.00000000E+00  0.00000000E+00
                       3.33333333E-01  0.00000000E+00  0.00000000E+00
                       5.00000000E-01  0.00000000E+00  0.00000000E+00
                       0.00000000E+00  1.66666667E-01  0.00000000E+00
                       1.66666667E-01  1.66666667E-01  0.00000000E+00
                       3.33333333E-01  1.66666667E-01  0.00000000E+00
                       5.00000000E-01  1.66666667E-01  0.00000000E+00
                      -3.33333333E-01  1.66666667E-01  0.00000000E+00
                      -1.66666667E-01  1.66666667E-01  0.00000000E+00
                       0.00000000E+00  3.33333333E-01  0.00000000E+00
                       1.66666667E-01  3.33333333E-01  0.00000000E+00
                       3.33333333E-01  3.33333333E-01  0.00000000E+00
                       5.00000000E-01  3.33333333E-01  0.00000000E+00
                      -3.33333333E-01  3.33333333E-01  0.00000000E+00
                      -1.66666667E-01  3.33333333E-01  0.00000000E+00
                       0.00000000E+00  5.00000000E-01  0.00000000E+00
                       1.66666667E-01  5.00000000E-01  0.00000000E+00
                       3.33333333E-01  5.00000000E-01  0.00000000E+00
                       5.00000000E-01  5.00000000E-01  0.00000000E+00
                       0.00000000E+00  0.00000000E+00  1.66666667E-01
                       1.66666667E-01  0.00000000E+00  1.66666667E-01
                       3.33333333E-01  0.00000000E+00  1.66666667E-01
                       5.00000000E-01  0.00000000E+00  1.66666667E-01
                      -3.33333333E-01  0.00000000E+00  1.66666667E-01
                      -1.66666667E-01  0.00000000E+00  1.66666667E-01
                       0.00000000E+00  1.66666667E-01  1.66666667E-01
                       1.66666667E-01  1.66666667E-01  1.66666667E-01
                       3.33333333E-01  1.66666667E-01  1.66666667E-01
                       5.00000000E-01  1.66666667E-01  1.66666667E-01
                      -3.33333333E-01  1.66666667E-01  1.66666667E-01
                      -1.66666667E-01  1.66666667E-01  1.66666667E-01
                       0.00000000E+00  3.33333333E-01  1.66666667E-01
                       1.66666667E-01  3.33333333E-01  1.66666667E-01
                       3.33333333E-01  3.33333333E-01  1.66666667E-01
                       5.00000000E-01  3.33333333E-01  1.66666667E-01
                      -3.33333333E-01  3.33333333E-01  1.66666667E-01
                      -1.66666667E-01  3.33333333E-01  1.66666667E-01
                       0.00000000E+00  5.00000000E-01  1.66666667E-01
                       1.66666667E-01  5.00000000E-01  1.66666667E-01
                       3.33333333E-01  5.00000000E-01  1.66666667E-01
                       5.00000000E-01  5.00000000E-01  1.66666667E-01
                      -3.33333333E-01  5.00000000E-01  1.66666667E-01
                      -1.66666667E-01  5.00000000E-01  1.66666667E-01
                       0.00000000E+00 -3.33333333E-01  1.66666667E-01
                       1.66666667E-01 -3.33333333E-01  1.66666667E-01
                       3.33333333E-01 -3.33333333E-01  1.66666667E-01
                       5.00000000E-01 -3.33333333E-01  1.66666667E-01
                      -3.33333333E-01 -3.33333333E-01  1.66666667E-01
                      -1.66666667E-01 -3.33333333E-01  1.66666667E-01
                       outvar_i_n : Printing only first  50 k-points.
           kptopt           2
         kptrlatt        6    0    0      0    6    0      0    0    6
          kptrlen      5.75486009E+01
P           mkmem           4
            natom          12
            nband          50
            ngfft          45      45      45
             nkpt         112
            nstep         100
             nsym           8
           ntypat           2
              occ      2.000000  2.000000  2.000000  2.000000  2.000000  2.000000
                       2.000000  2.000000  2.000000  2.000000  2.000000  2.000000
                       2.000000  2.000000  2.000000  2.000000  2.000000  2.000000
                       2.000000  2.000000  2.000000  2.000000  2.000000  2.000000
                       2.000000  2.000000  2.000000  2.000000  2.000000  2.000000
                       2.000000  2.000000  2.000000  2.000000  2.000000  2.000000
                       2.000000  2.000000  2.000000  2.000000  2.000000  2.000000
                       2.000000  2.000000  2.000000  2.000000  2.000000  2.000000
                       0.000000  0.000000
        pawecutdg      2.50000000E+01 Hartree
         pawxcdev           0
          spgroup         111
        symmorphi           0
           symrel      1  0  0   0  1  0   0  0  1      -1  0  0   0  1  0   0  0 -1
                      -1  0  0   0 -1  0   0  0  1       1  0  0   0 -1  0   0  0 -1
                       0  1  0   1  0  0   0  0  1       0 -1  0   1  0  0   0  0 -1
                       0 -1  0  -1  0  0   0  0  1       0  1  0  -1  0  0   0  0 -1
           tolmxf      1.00000000E-05
           tolvrs      1.00000000E-18
           tsmear      4.00000000E-02 Hartree
            typat      1  1  1  1  2  2  2  2  2  2  2  2
              wtk        0.00463    0.00926    0.00926    0.00463    0.00926    0.00926
                         0.00926    0.00926    0.00926    0.00926    0.00926    0.00926
                         0.00926    0.00926    0.00926    0.00926    0.00463    0.00926
                         0.00926    0.00463    0.00926    0.00926    0.00926    0.00926
                         0.00926    0.00926    0.00926    0.00926    0.00926    0.00926
                         0.00926    0.00926    0.00926    0.00926    0.00926    0.00926
                         0.00926    0.00926    0.00926    0.00926    0.00926    0.00926
                         0.00926    0.00926    0.00926    0.00926    0.00926    0.00926
                         0.00926    0.00926
                       outvars : Printing only first  50 k-points.
           xangst      0.0000000000E+00  0.0000000000E+00  0.0000000000E+00
                       0.0000000000E+00  2.5377840000E+00  2.5377840000E+00
                       2.5377840000E+00  0.0000000000E+00  2.5377840000E+00
                       2.5377840000E+00  2.5377840000E+00  0.0000000000E+00
                       1.2688428685E+00  1.2688428685E+00  3.5612083350E+00
                       1.2689411315E+00  3.8066268685E+00  4.0521436650E+00
                       1.2688428685E+00  3.8067251315E+00  1.5143596650E+00
                       1.2689411315E+00  1.2689411315E+00  1.0234243350E+00
                       3.8067251315E+00  1.2688428685E+00  1.5143596650E+00
                       3.8066268685E+00  3.8066268685E+00  1.0234243350E+00
                       3.8067251315E+00  3.8067251315E+00  3.5612083350E+00
                       3.8066268685E+00  1.2689411315E+00  4.0521436650E+00
            xcart      0.0000000000E+00  0.0000000000E+00  0.0000000000E+00
                       0.0000000000E+00  4.7957167444E+00  4.7957167444E+00
                       4.7957167444E+00  0.0000000000E+00  4.7957167444E+00
                       4.7957167444E+00  4.7957167444E+00  0.0000000000E+00
                       2.3977655271E+00  2.3977655271E+00  6.7297084554E+00
                       2.3979512173E+00  7.1934822716E+00  7.6574417779E+00
                       2.3977655271E+00  7.1936679617E+00  2.8617250335E+00
                       2.3979512173E+00  2.3979512173E+00  1.9339917110E+00
                       7.1936679617E+00  2.3977655271E+00  2.8617250335E+00
                       7.1934822716E+00  7.1934822716E+00  1.9339917110E+00
                       7.1936679617E+00  7.1936679617E+00  6.7297084554E+00
                       7.1934822716E+00  2.3979512173E+00  7.6574417779E+00
             xred      0.0000000000E+00  0.0000000000E+00  0.0000000000E+00
                       0.0000000000E+00  5.0000000000E-01  5.0000000000E-01
                       5.0000000000E-01  0.0000000000E+00  5.0000000000E-01
                       5.0000000000E-01  5.0000000000E-01  0.0000000000E+00
                       2.4999032000E-01  2.4999032000E-01  7.0163740000E-01
                       2.5000968000E-01  7.4999032000E-01  7.9836260000E-01
                       2.4999032000E-01  7.5000968000E-01  2.9836260000E-01
                       2.5000968000E-01  2.5000968000E-01  2.0163740000E-01
                       7.5000968000E-01  2.4999032000E-01  2.9836260000E-01
                       7.4999032000E-01  7.4999032000E-01  2.0163740000E-01
                       7.5000968000E-01  7.5000968000E-01  7.0163740000E-01
                       7.4999032000E-01  2.5000968000E-01  7.9836260000E-01
            znucl       72.00000    8.00000

 chkinp: Checking input parameters for consistency.

== DATASET  1 ==================================================================
[...]
    1       0.000000000000      0.000000000000      0.000000000000
    2       0.000000000000      0.000000000000      0.000000000000
    3       0.000000000000      0.000000000000      0.000000000000
    4       0.000000000000      0.000000000000      0.000000000000
    5       0.000078207899      0.000078207899     -0.000005286211
    6       0.000103647282     -0.000103647282     -0.000025369751
    7       0.000078207899     -0.000078207899      0.000005286211
    8       0.000103647282      0.000103647282      0.000025369751
    9      -0.000078207899      0.000078207899      0.000005286211
   10      -0.000103647282     -0.000103647282      0.000025369751
   11      -0.000078207899     -0.000078207899     -0.000005286211
   12      -0.000103647282      0.000103647282     -0.000025369751

 cartesian coordinates (angstrom) at end:
    1      0.00000000000000     0.00000000000000     0.00000000000000
    2      0.00000000000000     2.53778400000000     2.53778400000000
    3      2.53778400000000     0.00000000000000     2.53778400000000
    4      2.53778400000000     2.53778400000000     0.00000000000000
    5      1.26884286850176     1.26884286850176     3.56120833504320
    6      1.26894113149824     3.80662686850176     4.05214366495680
    7      1.26884286850176     3.80672513149824     1.51435966495680
    8      1.26894113149824     1.26894113149824     1.02342433504320
    9      3.80672513149824     1.26884286850176     1.51435966495680
   10      3.80662686850176     3.80662686850176     1.02342433504320
   11      3.80672513149824     3.80672513149824     3.56120833504320
   12      3.80662686850176     1.26894113149824     4.05214366495680

 cartesian forces (hartree/bohr) at end:
    1      0.00000000000000     0.00000000000000     0.00000000000000
    2      0.00000000000000     0.00000000000000     0.00000000000000
    3      0.00000000000000     0.00000000000000     0.00000000000000
    4      0.00000000000000     0.00000000000000     0.00000000000000
    5     -0.00000815393226    -0.00000815393226     0.00000055113883
    6     -0.00001080623472     0.00001080623472     0.00000264504270
    7     -0.00000815393226     0.00000815393226    -0.00000055113883
    8     -0.00001080623472    -0.00001080623472    -0.00000264504270
    9      0.00000815393226    -0.00000815393226    -0.00000055113883
   10      0.00001080623472     0.00001080623472    -0.00000264504270
   11      0.00000815393226     0.00000815393226     0.00000055113883
   12      0.00001080623472    -0.00001080623472     0.00000264504270
 frms,max,avg= 6.4448312E-06 1.0806235E-05   0.000E+00  0.000E+00  0.000E+00 h/b

 cartesian forces (eV/Angstrom) at end:
    1      0.00000000000000     0.00000000000000     0.00000000000000
    2      0.00000000000000     0.00000000000000     0.00000000000000
    3      0.00000000000000     0.00000000000000     0.00000000000000
    4      0.00000000000000     0.00000000000000     0.00000000000000
    5     -0.00041929201971    -0.00041929201971     0.00002834069579
    6     -0.00055567888440     0.00055567888440     0.00013601355285
    7     -0.00041929201971     0.00041929201971    -0.00002834069579
    8     -0.00055567888440    -0.00055567888440    -0.00013601355285
    9      0.00041929201971    -0.00041929201971    -0.00002834069579
   10      0.00055567888440     0.00055567888440    -0.00013601355285
   11      0.00041929201971     0.00041929201971     0.00002834069579
   12      0.00055567888440    -0.00055567888440     0.00013601355285
 frms,max,avg= 3.3140652E-04 5.5567888E-04   0.000E+00  0.000E+00  0.000E+00 e/A
 length scales=  9.591433488838  9.591433488838  9.591433488838 bohr
              =  5.075568000000  5.075568000000  5.075568000000 angstroms
 prteigrs : about to open file o_EIG
 Fermi (or HOMO) energy (hartree) =   0.27714   Average Vxc (hartree)=  -0.44601
 Eigenvalues (hartree) for nkpt= 112  k points:
 kpt#   1, nband= 50, wtk=  0.00463, kpt=  0.0000  0.0000  0.0000 (reduced coord)
  -1.94370   -1.94304   -1.94300   -1.94300   -0.80523   -0.80523   -0.80489   -0.79312
  -0.79312   -0.79281   -0.79281   -0.79147   -0.79147   -0.78862   -0.78698   -0.78698
  -0.39504   -0.33819   -0.32893   -0.32893   -0.31889   -0.31581   -0.31581   -0.29679
   0.06029    0.06029    0.07167    0.09588    0.10257    0.10257    0.16431    0.16431
   0.16650    0.16650    0.17274    0.17274    0.22370    0.22370    0.22845    0.22845
   0.24960    0.24960    0.25533    0.25534    0.25962    0.26629    0.26629    0.27519
   0.44246    0.44524
 prteigrs : prtvol=0 or 1, do not print more k-points.

--- !EnergyTerms
iteration_state     : {dtset: 1, }
comment             : Components of total free energy in Hartree
kinetic             :  1.46191251933263E+02
hartree             :  5.59161460945091E+01
xc                  : -9.09038774836379E+01
Ewald energy        : -2.70166846616934E+02
psp_core            :  1.49595106529080E+01
local_psp           : -2.05517842012653E+02
non_local_psp       : -9.11261060918005E+00
total_energy        : -3.58634268041726E+02
total_energy_eV     : -9.75893473303353E+03
band_energy         : -3.10953769201604E+01
...

 Cartesian components of stress tensor (hartree/bohr^3)
  sigma(1 1)= -1.72356923E-04  sigma(3 2)=  0.00000000E+00
  sigma(2 2)= -1.72356923E-04  sigma(3 1)=  0.00000000E+00
  sigma(3 3)= -4.75295906E-04  sigma(2 1)=  0.00000000E+00

-Cartesian components of stress tensor (GPa)         [Pressure=  8.0418E+00 GPa]
- sigma(1 1)= -5.07091490E+00  sigma(3 2)=  0.00000000E+00
- sigma(2 2)= -5.07091490E+00  sigma(3 1)=  0.00000000E+00
- sigma(3 3)= -1.39836860E+01  sigma(2 1)=  0.00000000E+00

== END DATASET(S) ==============================================================

 -outvars: echo values of variables after computation  --------
            acell      9.5914334888E+00  9.5914334888E+00  9.5914334888E+00 Bohr
              amu      1.78490000E+02  1.59994000E+01
          chkprim           0
             ecut      2.50000000E+01 Hartree
           ecutsm      5.00000000E-01 Hartree
           etotal     -3.5863426804E+02
            fcart      2.8234431575E-22  0.0000000000E+00  7.0586078938E-23
                       2.8234431575E-22  0.0000000000E+00  7.0586078938E-23
                       2.8234431575E-22  0.0000000000E+00  7.0586078938E-23
                       2.8234431575E-22  0.0000000000E+00  7.0586078938E-23
                      -8.1539322556E-06 -8.1539322556E-06  5.5113883095E-07
                      -1.0806234715E-05  1.0806234715E-05  2.6450426998E-06
                      -8.1539322556E-06  8.1539322556E-06 -5.5113883095E-07
                      -1.0806234715E-05 -1.0806234715E-05 -2.6450426998E-06
                       8.1539322556E-06 -8.1539322556E-06 -5.5113883095E-07
                       1.0806234715E-05  1.0806234715E-05 -2.6450426998E-06
                       8.1539322556E-06  8.1539322556E-06  5.5113883095E-07
                       1.0806234715E-05 -1.0806234715E-05  2.6450426998E-06
-          fftalg         512
           istwfk        2    0    0    3    0    0    0    0    0    0
                         0    0    0    0    0    0    6    0    0    7
                         0    0    0    0    0    0    0    0    0    0
                         0    0    0    0    0    0    0    0    0    0
                         0    0    0    0    0    0    0    0    0    0
                       outvar_i_n : Printing only first  50 k-points.
              ixc          11
              kpt      0.00000000E+00  0.00000000E+00  0.00000000E+00
                       1.66666667E-01  0.00000000E+00  0.00000000E+00
                       3.33333333E-01  0.00000000E+00  0.00000000E+00
                       5.00000000E-01  0.00000000E+00  0.00000000E+00
                       0.00000000E+00  1.66666667E-01  0.00000000E+00
                       1.66666667E-01  1.66666667E-01  0.00000000E+00
                       3.33333333E-01  1.66666667E-01  0.00000000E+00
                       5.00000000E-01  1.66666667E-01  0.00000000E+00
                      -3.33333333E-01  1.66666667E-01  0.00000000E+00
                      -1.66666667E-01  1.66666667E-01  0.00000000E+00
                       0.00000000E+00  3.33333333E-01  0.00000000E+00
                       1.66666667E-01  3.33333333E-01  0.00000000E+00
                       3.33333333E-01  3.33333333E-01  0.00000000E+00
                       5.00000000E-01  3.33333333E-01  0.00000000E+00
                      -3.33333333E-01  3.33333333E-01  0.00000000E+00
                      -1.66666667E-01  3.33333333E-01  0.00000000E+00
                       0.00000000E+00  5.00000000E-01  0.00000000E+00
                       1.66666667E-01  5.00000000E-01  0.00000000E+00
                       3.33333333E-01  5.00000000E-01  0.00000000E+00
                       5.00000000E-01  5.00000000E-01  0.00000000E+00
                       0.00000000E+00  0.00000000E+00  1.66666667E-01
                       1.66666667E-01  0.00000000E+00  1.66666667E-01
                       3.33333333E-01  0.00000000E+00  1.66666667E-01
                       5.00000000E-01  0.00000000E+00  1.66666667E-01
                      -3.33333333E-01  0.00000000E+00  1.66666667E-01
                      -1.66666667E-01  0.00000000E+00  1.66666667E-01
                       0.00000000E+00  1.66666667E-01  1.66666667E-01
                       1.66666667E-01  1.66666667E-01  1.66666667E-01
                       3.33333333E-01  1.66666667E-01  1.66666667E-01
                       5.00000000E-01  1.66666667E-01  1.66666667E-01
                      -3.33333333E-01  1.66666667E-01  1.66666667E-01
                      -1.66666667E-01  1.66666667E-01  1.66666667E-01
                       0.00000000E+00  3.33333333E-01  1.66666667E-01
                       1.66666667E-01  3.33333333E-01  1.66666667E-01
                       3.33333333E-01  3.33333333E-01  1.66666667E-01
                       5.00000000E-01  3.33333333E-01  1.66666667E-01
                      -3.33333333E-01  3.33333333E-01  1.66666667E-01
                      -1.66666667E-01  3.33333333E-01  1.66666667E-01
                       0.00000000E+00  5.00000000E-01  1.66666667E-01
                       1.66666667E-01  5.00000000E-01  1.66666667E-01
                       3.33333333E-01  5.00000000E-01  1.66666667E-01
                       5.00000000E-01  5.00000000E-01  1.66666667E-01
                      -3.33333333E-01  5.00000000E-01  1.66666667E-01
                      -1.66666667E-01  5.00000000E-01  1.66666667E-01
                       0.00000000E+00 -3.33333333E-01  1.66666667E-01
                       1.66666667E-01 -3.33333333E-01  1.66666667E-01
                       3.33333333E-01 -3.33333333E-01  1.66666667E-01
                       5.00000000E-01 -3.33333333E-01  1.66666667E-01
                      -3.33333333E-01 -3.33333333E-01  1.66666667E-01
                      -1.66666667E-01 -3.33333333E-01  1.66666667E-01
                       outvar_i_n : Printing only first  50 k-points.
           kptopt           2
         kptrlatt        6    0    0      0    6    0      0    0    6
          kptrlen      5.75486009E+01
P           mkmem           4
            natom          12
            nband          50
            ngfft          45      45      45
             nkpt         112
            nstep         100
             nsym           8
           ntypat           2
              occ      2.000000  2.000000  2.000000  2.000000  2.000000  2.000000
                       2.000000  2.000000  2.000000  2.000000  2.000000  2.000000
                       2.000000  2.000000  2.000000  2.000000  2.000000  2.000000
                       2.000000  2.000000  2.000000  2.000000  2.000000  2.000000
                       2.000000  2.000000  2.000000  2.000000  2.000000  2.000000
                       2.000000  2.000000  2.000000  2.000000  2.000000  2.000000
                       2.000000  2.000000  2.000000  2.000000  2.000000  2.000000
                       2.000000  2.000000  2.000000  2.000000  2.000000  2.000000
                       0.000000  0.000000
        pawecutdg      2.50000000E+01 Hartree
         pawxcdev           0
          spgroup         111
           strten     -1.7235692309E-04 -1.7235692309E-04 -4.7529590631E-04
                       0.0000000000E+00  0.0000000000E+00  0.0000000000E+00
        symmorphi           0
           symrel      1  0  0   0  1  0   0  0  1      -1  0  0   0  1  0   0  0 -1
                      -1  0  0   0 -1  0   0  0  1       1  0  0   0 -1  0   0  0 -1
                       0  1  0   1  0  0   0  0  1       0 -1  0   1  0  0   0  0 -1
                       0 -1  0  -1  0  0   0  0  1       0  1  0  -1  0  0   0  0 -1
           tolmxf      1.00000000E-05
           tolvrs      1.00000000E-18
           tsmear      4.00000000E-02 Hartree
            typat      1  1  1  1  2  2  2  2  2  2  2  2
              wtk        0.00463    0.00926    0.00926    0.00463    0.00926    0.00926
                         0.00926    0.00926    0.00926    0.00926    0.00926    0.00926
                         0.00926    0.00926    0.00926    0.00926    0.00463    0.00926
                         0.00926    0.00463    0.00926    0.00926    0.00926    0.00926
                         0.00926    0.00926    0.00926    0.00926    0.00926    0.00926
                         0.00926    0.00926    0.00926    0.00926    0.00926    0.00926
                         0.00926    0.00926    0.00926    0.00926    0.00926    0.00926
                         0.00926    0.00926    0.00926    0.00926    0.00926    0.00926
                         0.00926    0.00926
                       outvars : Printing only first  50 k-points.
           xangst      0.0000000000E+00  0.0000000000E+00  0.0000000000E+00
                       0.0000000000E+00  2.5377840000E+00  2.5377840000E+00
                       2.5377840000E+00  0.0000000000E+00  2.5377840000E+00
                       2.5377840000E+00  2.5377840000E+00  0.0000000000E+00
                       1.2688428685E+00  1.2688428685E+00  3.5612083350E+00
                       1.2689411315E+00  3.8066268685E+00  4.0521436650E+00
                       1.2688428685E+00  3.8067251315E+00  1.5143596650E+00
                       1.2689411315E+00  1.2689411315E+00  1.0234243350E+00
                       3.8067251315E+00  1.2688428685E+00  1.5143596650E+00
                       3.8066268685E+00  3.8066268685E+00  1.0234243350E+00
                       3.8067251315E+00  3.8067251315E+00  3.5612083350E+00
                       3.8066268685E+00  1.2689411315E+00  4.0521436650E+00
            xcart      0.0000000000E+00  0.0000000000E+00  0.0000000000E+00
                       0.0000000000E+00  4.7957167444E+00  4.7957167444E+00
                       4.7957167444E+00  0.0000000000E+00  4.7957167444E+00
                       4.7957167444E+00  4.7957167444E+00  0.0000000000E+00
                       2.3977655271E+00  2.3977655271E+00  6.7297084554E+00
                       2.3979512173E+00  7.1934822716E+00  7.6574417779E+00
                       2.3977655271E+00  7.1936679617E+00  2.8617250335E+00
                       2.3979512173E+00  2.3979512173E+00  1.9339917110E+00
                       7.1936679617E+00  2.3977655271E+00  2.8617250335E+00
                       7.1934822716E+00  7.1934822716E+00  1.9339917110E+00
                       7.1936679617E+00  7.1936679617E+00  6.7297084554E+00
                       7.1934822716E+00  2.3979512173E+00  7.6574417779E+00
             xred      0.0000000000E+00  0.0000000000E+00  0.0000000000E+00
                       0.0000000000E+00  5.0000000000E-01  5.0000000000E-01
                       5.0000000000E-01  0.0000000000E+00  5.0000000000E-01
                       5.0000000000E-01  5.0000000000E-01  0.0000000000E+00
                       2.4999032000E-01  2.4999032000E-01  7.0163740000E-01
                       2.5000968000E-01  7.4999032000E-01  7.9836260000E-01
                       2.4999032000E-01  7.5000968000E-01  2.9836260000E-01
                       2.5000968000E-01  2.5000968000E-01  2.0163740000E-01
                       7.5000968000E-01  2.4999032000E-01  2.9836260000E-01
                       7.4999032000E-01  7.4999032000E-01  2.0163740000E-01
                       7.5000968000E-01  7.5000968000E-01  7.0163740000E-01
                       7.4999032000E-01  2.5000968000E-01  7.9836260000E-01
            znucl       72.00000    8.00000

- Timing analysis has been suppressed with timopt=0

 Suggested references for the acknowledgment of ABINIT usage.

 Calculation completed.
.Delivered   0 WARNINGs and   0 COMMENTs to log file.