.Version 9.4.1 of ABINIT

 ABINIT is a project of the Universite Catholique de Louvain,
 Corning Inc. and other collaborators, see ~abinit/doc/developers/contributors.txt .
 acknowledgments of the ABINIT effort.

.Starting date : Sat  3 Jul 2021.
- ( at 07h22 )

- input  file    -> PATH11
- output file    -> PATH11.abo
- root for input  files -> i
- root for output files -> o

 Symmetries : space group Pn c 2 (# 30); Bravais oP (primitive ortho.)
     intxc =       0    ionmov =       0      iscf =       7    lmnmax =       8
     lnmax =       8     mgfft =      45  mpssoang =       4    mqgrid =    3001
     natom =      12  nloc_mem =       1    nspden =       1   nspinor =       1
    nsppol =       1      nsym =       2    n1xccc =    2501    ntypat =       2
    occopt =       1   xclevel =       2
-    mband =          50        mffmem =           1         mkmem =           4
       mpw =        5280          nfft =       91125          nkpt =         112
  Rough estimation (10% accuracy) of disk space for files :

------------- Echo of variables that govern the present computation ------------
-
- outvars: echo of selected default values
-   iomode0 =  3 , fftalg0 =512 , wfoptalg0 =  0
-
- outvars: echo of global parameters not present in the input file
-  max_nthreads =    0
-
 -outvars: echo values of preprocessed input variables --------
            acell      9.5914334888E+00  9.5914334888E+00  9.5914334888E+00 Bohr
              amu      1.78490000E+02  1.59994000E+01
          chkprim           0
             ecut      2.50000000E+01 Hartree
           ecutsm      5.00000000E-01 Hartree
-          fftalg         512
           istwfk        2    0    0    3    0    0    0    0    0    0
                         0    0    0    0    0    0    6    0    0    7
                         0    0    0    0    0    0    0    0    0    0
                         0    0    0    0    0    0    0    0    0    0
                         0    0    0    0    0    0    0    0    0    0
                       outvar_i_n : Printing only first  50 k-points.
              ixc          11
              kpt      0.00000000E+00  0.00000000E+00  0.00000000E+00
                       1.66666667E-01  0.00000000E+00  0.00000000E+00
                       3.33333333E-01  0.00000000E+00  0.00000000E+00
                       5.00000000E-01  0.00000000E+00  0.00000000E+00
                       0.00000000E+00  1.66666667E-01  0.00000000E+00
                       1.66666667E-01  1.66666667E-01  0.00000000E+00
                       3.33333333E-01  1.66666667E-01  0.00000000E+00
                       5.00000000E-01  1.66666667E-01  0.00000000E+00
                      -3.33333333E-01  1.66666667E-01  0.00000000E+00
                      -1.66666667E-01  1.66666667E-01  0.00000000E+00
                       0.00000000E+00  3.33333333E-01  0.00000000E+00
                       1.66666667E-01  3.33333333E-01  0.00000000E+00
                       3.33333333E-01  3.33333333E-01  0.00000000E+00
                       5.00000000E-01  3.33333333E-01  0.00000000E+00
                      -3.33333333E-01  3.33333333E-01  0.00000000E+00
                      -1.66666667E-01  3.33333333E-01  0.00000000E+00
                       0.00000000E+00  5.00000000E-01  0.00000000E+00
                       1.66666667E-01  5.00000000E-01  0.00000000E+00
                       3.33333333E-01  5.00000000E-01  0.00000000E+00
                       5.00000000E-01  5.00000000E-01  0.00000000E+00
                       0.00000000E+00  0.00000000E+00  1.66666667E-01
                       1.66666667E-01  0.00000000E+00  1.66666667E-01
                       3.33333333E-01  0.00000000E+00  1.66666667E-01
                       5.00000000E-01  0.00000000E+00  1.66666667E-01
                      -3.33333333E-01  0.00000000E+00  1.66666667E-01
                      -1.66666667E-01  0.00000000E+00  1.66666667E-01
                       0.00000000E+00  1.66666667E-01  1.66666667E-01
                       1.66666667E-01  1.66666667E-01  1.66666667E-01
                       3.33333333E-01  1.66666667E-01  1.66666667E-01
                       5.00000000E-01  1.66666667E-01  1.66666667E-01
                      -3.33333333E-01  1.66666667E-01  1.66666667E-01
                      -1.66666667E-01  1.66666667E-01  1.66666667E-01
                       0.00000000E+00  3.33333333E-01  1.66666667E-01
                       1.66666667E-01  3.33333333E-01  1.66666667E-01
                       3.33333333E-01  3.33333333E-01  1.66666667E-01
                       5.00000000E-01  3.33333333E-01  1.66666667E-01
                      -3.33333333E-01  3.33333333E-01  1.66666667E-01
                      -1.66666667E-01  3.33333333E-01  1.66666667E-01
                       0.00000000E+00  5.00000000E-01  1.66666667E-01
                       1.66666667E-01  5.00000000E-01  1.66666667E-01
                       3.33333333E-01  5.00000000E-01  1.66666667E-01
                       5.00000000E-01  5.00000000E-01  1.66666667E-01
                      -3.33333333E-01  5.00000000E-01  1.66666667E-01
                      -1.66666667E-01  5.00000000E-01  1.66666667E-01
                       0.00000000E+00 -3.33333333E-01  1.66666667E-01
                       1.66666667E-01 -3.33333333E-01  1.66666667E-01
                       3.33333333E-01 -3.33333333E-01  1.66666667E-01
                       5.00000000E-01 -3.33333333E-01  1.66666667E-01
                      -3.33333333E-01 -3.33333333E-01  1.66666667E-01
                      -1.66666667E-01 -3.33333333E-01  1.66666667E-01
                       outvar_i_n : Printing only first  50 k-points.
           kptopt           2
         kptrlatt        6    0    0      0    6    0      0    0    6
          kptrlen      5.75486009E+01
P           mkmem           4
            natom          12
            nband          50
            ngfft          45      45      45
             nkpt         112
            nstep         100
             nsym           2
           ntypat           2
              occ      2.000000  2.000000  2.000000  2.000000  2.000000  2.000000
                       2.000000  2.000000  2.000000  2.000000  2.000000  2.000000
                       2.000000  2.000000  2.000000  2.000000  2.000000  2.000000
                       2.000000  2.000000  2.000000  2.000000  2.000000  2.000000
                       2.000000  2.000000  2.000000  2.000000  2.000000  2.000000
                       2.000000  2.000000  2.000000  2.000000  2.000000  2.000000
                       2.000000  2.000000  2.000000  2.000000  2.000000  2.000000
                       2.000000  2.000000  2.000000  2.000000  2.000000  2.000000
                       0.000000  0.000000
        pawecutdg      2.50000000E+01 Hartree
         pawxcdev           0
          spgroup          30
        symmorphi           0
           symrel      1  0  0   0  1  0   0  0  1      -1  0  0   0  1  0   0  0 -1
           tolmxf      1.00000000E-05
           tolvrs      1.00000000E-18
           tsmear      4.00000000E-02 Hartree
            typat      1  1  1  1  2  2  2  2  2  2  2  2
              wtk        0.00463    0.00926    0.00926    0.00463    0.00926    0.00926
                         0.00926    0.00926    0.00926    0.00926    0.00926    0.00926
                         0.00926    0.00926    0.00926    0.00926    0.00463    0.00926
                         0.00926    0.00463    0.00926    0.00926    0.00926    0.00926
                         0.00926    0.00926    0.00926    0.00926    0.00926    0.00926
                         0.00926    0.00926    0.00926    0.00926    0.00926    0.00926
                         0.00926    0.00926    0.00926    0.00926    0.00926    0.00926
                         0.00926    0.00926    0.00926    0.00926    0.00926    0.00926
                         0.00926    0.00926
                       outvars : Printing only first  50 k-points.
           xangst      0.0000000000E+00  8.9583775201E-06  0.0000000000E+00
                       0.0000000000E+00  2.5377929584E+00  2.5377840000E+00
                       2.5377840000E+00  8.9329996800E-06  2.5377840000E+00
                       2.5377840000E+00  2.5377929330E+00  0.0000000000E+00
                       1.1989691226E+00  1.1752874867E+00  3.5513192506E+00
                       1.1989691226E+00  3.7130714867E+00  4.0620327494E+00
                       1.3388148520E+00  3.7132062684E+00  1.5242490539E+00
                       1.3388148520E+00  1.1754222684E+00  1.0135349461E+00
                       3.8765988774E+00  1.1752874867E+00  1.5242487494E+00
                       3.8765988774E+00  3.7130714867E+00  1.0135352506E+00
                       3.7367531480E+00  3.7132062684E+00  3.5513189461E+00
                       3.7367531480E+00  1.1754222684E+00  4.0620330539E+00
            xcart      0.0000000000E+00  1.6928880108E-05  0.0000000000E+00
                       0.0000000000E+00  4.7957336733E+00  4.7957167444E+00
                       4.7957167444E+00  1.6880922940E-05  4.7957167444E+00
                       4.7957167444E+00  4.7957336253E+00  0.0000000000E+00
                       2.2657232836E+00  2.2209714773E+00  6.7110207941E+00
                       2.2657232836E+00  7.0166882217E+00  7.6761294391E+00
                       2.5299934129E+00  7.0169429222E+00  2.8804132702E+00
                       2.5299934129E+00  2.2212261778E+00  1.9153034742E+00
                       7.3257102052E+00  2.2209714773E+00  2.8804126947E+00
                       7.3257102052E+00  7.0166882217E+00  1.9153040497E+00
                       7.0614400760E+00  7.0169429222E+00  6.7110202186E+00
                       7.0614400760E+00  2.2212261778E+00  7.6761300146E+00
             xred      0.0000000000E+00  1.7650000000E-06  0.0000000000E+00
                       0.0000000000E+00  5.0000176500E-01  5.0000000000E-01
                       5.0000000000E-01  1.7600000000E-06  5.0000000000E-01
                       5.0000000000E-01  5.0000176000E-01  0.0000000000E+00
                       2.3622363500E-01  2.3155782500E-01  6.9968903000E-01
                       2.3622363500E-01  7.3155782500E-01  8.0031097000E-01
                       2.6377636000E-01  7.3158438000E-01  3.0031103000E-01
                       2.6377636000E-01  2.3158438000E-01  1.9968897000E-01
                       7.6377636500E-01  2.3155782500E-01  3.0031097000E-01
                       7.6377636500E-01  7.3155782500E-01  1.9968903000E-01
                       7.3622364000E-01  7.3158438000E-01  6.9968897000E-01
                       7.3622364000E-01  2.3158438000E-01  8.0031103000E-01
            znucl       72.00000    8.00000

 chkinp: Checking input parameters for consistency.

== DATASET  1 ==================================================================
-   mpi_nproc: 36, omp_nthreads: -1 (-1 if OMP is not activated)
-    --> not optimal distribution: autoparal keyword recommended in input file <--

--- !DatasetInfo
iteration_state: {dtset: 1, }
[...]
       0.763776365000      0.731557825000      0.199689030000
       0.736223640000      0.731584380000      0.699688970000
       0.736223640000      0.231584380000      0.800311030000
 rms dE/dt=  1.1896E-02; max dE/dt=  2.8954E-02; dE/dt below (all hartree)
    1       0.000000000000      0.028954010817      0.000000000000
    2       0.000000000000      0.028874717885      0.000000000000
    3       0.000000000000      0.028916141227      0.000000000000
    4       0.000000000000      0.028853351745      0.000000000000
    5       0.003281849812     -0.014418834220      0.000628812012
    6       0.003328209354     -0.014534365240     -0.000696296928
    7      -0.003098489411     -0.014456370878     -0.000638976731
    8      -0.003104739239     -0.014345883772      0.000701517591
    9      -0.003281849812     -0.014418834220     -0.000628812012
   10      -0.003328209354     -0.014534365240      0.000696296928
   11       0.003098489411     -0.014456370878      0.000638976731
   12       0.003104739239     -0.014345883772     -0.000701517591

 cartesian coordinates (angstrom) at end:
    1      0.00000000000000     0.00000895837752     0.00000000000000
    2      0.00000000000000     2.53779295837752     2.53778400000000
    3      2.53778400000000     0.00000893299968     2.53778400000000
    4      2.53778400000000     2.53779293299968     0.00000000000000
    5      1.19896912264968     1.17528748671960     3.55131925061904
    6      1.19896912264968     3.71307148671960     4.06203274938096
    7      1.33881485197248     3.71320626842784     1.52424905391504
    8      1.33881485197248     1.17542226842784     1.01353494608496
    9      3.87659887735032     1.17528748671960     1.52424874938096
   10      3.87659887735032     3.71307148671960     1.01353525061904
   11      3.73675314802752     3.71320626842784     3.55131894608496
   12      3.73675314802752     1.17542226842784     4.06203305391504

 cartesian forces (hartree/bohr) at end:
    1      0.00000000000000    -0.00301797794145     0.00000000000000
    2      0.00000000000000    -0.00300971088390     0.00000000000000
    3      0.00000000000000    -0.00301402966919     0.00000000000000
    4      0.00000000000000    -0.00300748325653     0.00000000000000
    5     -0.00034216468433     0.00150406196927    -0.00006555975319
    6     -0.00034699811639     0.00151610719897     0.00007259571040
    7      0.00032304758347     0.00150797553007     0.00006661952372
    8      0.00032369918876     0.00149645617723    -0.00007314001519
    9      0.00034216468433     0.00150406196927     0.00006555975319
   10      0.00034699811639     0.00151610719897    -0.00007259571040
   11     -0.00032304758347     0.00150797553007    -0.00006661952372
   12     -0.00032369918876     0.00149645617723     0.00007314001519
 frms,max,avg= 1.2402526E-03 3.0179779E-03   0.000E+00 -7.586E-07  0.000E+00 h/b

 cartesian forces (eV/Angstrom) at end:
    1      0.00000000000000    -0.15519065241796     0.00000000000000
    2      0.00000000000000    -0.15476554326230     0.00000000000000
    3      0.00000000000000    -0.15498762411246     0.00000000000000
    4      0.00000000000000    -0.15465099406696     0.00000000000000
    5     -0.01759481401994     0.07734196962888    -0.00337121777143
    6     -0.01784335906840     0.07796136019172     0.00373302120753
    7      0.01661177325151     0.07754321299951     0.00342571335846
    8      0.01664528013973     0.07695086410973    -0.00376101048293
    9      0.01759481401994     0.07734196962888     0.00337121777143
   10      0.01784335906840     0.07796136019172    -0.00373302120753
   11     -0.01661177325151     0.07754321299951    -0.00342571335846
   12     -0.01664528013973     0.07695086410973     0.00376101048293
 frms,max,avg= 6.3776346E-02 1.5519065E-01   0.000E+00 -3.901E-05  0.000E+00 e/A
 length scales=  9.591433488838  9.591433488838  9.591433488838 bohr
              =  5.075568000000  5.075568000000  5.075568000000 angstroms
 prteigrs : about to open file o_EIG
 Fermi (or HOMO) energy (hartree) =   0.27662   Average Vxc (hartree)=  -0.44594
 Eigenvalues (hartree) for nkpt= 112  k points:
 kpt#   1, nband= 50, wtk=  0.00463, kpt=  0.0000  0.0000  0.0000 (reduced coord)
  -1.94306   -1.94240   -1.94237   -1.94237   -0.80502   -0.80492   -0.80464   -0.79364
  -0.79282   -0.79246   -0.79174   -0.79145   -0.79119   -0.78805   -0.78665   -0.78662
  -0.39522   -0.33819   -0.32999   -0.32874   -0.31887   -0.31656   -0.31551   -0.29868
   0.06064    0.06097    0.07224    0.09604    0.10329    0.10426    0.16022    0.16357
   0.16655    0.16979    0.17196    0.17199    0.21793    0.22363    0.22429    0.22937
   0.24372    0.25223    0.25286    0.25431    0.25441    0.26569    0.26943    0.27517
   0.44624    0.44653
 prteigrs : prtvol=0 or 1, do not print more k-points.

--- !EnergyTerms
iteration_state     : {dtset: 1, }
comment             : Components of total free energy in Hartree
kinetic             :  1.46244827940587E+02
hartree             :  5.60156248173309E+01
xc                  : -9.09157847264757E+01
Ewald energy        : -2.70049488388117E+02
psp_core            :  1.49595106529080E+01
local_psp           : -2.05768500915206E+02
non_local_psp       : -9.11963406991656E+00
total_energy        : -3.58633444688889E+02
total_energy_eV     : -9.75891232846345E+03
band_energy         : -3.11156662612618E+01
...

 Cartesian components of stress tensor (hartree/bohr^3)
  sigma(1 1)= -1.92648273E-04  sigma(3 2)=  0.00000000E+00
  sigma(2 2)= -1.99085246E-04  sigma(3 1)= -2.59566907E-09
  sigma(3 3)= -4.90666610E-04  sigma(2 1)=  0.00000000E+00

-Cartesian components of stress tensor (GPa)         [Pressure=  8.6537E+00 GPa]
- sigma(1 1)= -5.66790693E+00  sigma(3 2)=  0.00000000E+00
- sigma(2 2)= -5.85728917E+00  sigma(3 1)= -7.63672077E-05
- sigma(3 3)= -1.44359076E+01  sigma(2 1)=  0.00000000E+00

== END DATASET(S) ==============================================================

 -outvars: echo values of variables after computation  --------
            acell      9.5914334888E+00  9.5914334888E+00  9.5914334888E+00 Bohr
              amu      1.78490000E+02  1.59994000E+01
          chkprim           0
             ecut      2.50000000E+01 Hartree
           ecutsm      5.00000000E-01 Hartree
           etotal     -3.5863344469E+02
            fcart      4.5175090520E-21 -3.0179779414E-03  0.0000000000E+00
                       4.5175090520E-21 -3.0097108839E-03  0.0000000000E+00
                       4.5175090520E-21 -3.0140296692E-03  0.0000000000E+00
                       4.5175090520E-21 -3.0074832565E-03  0.0000000000E+00
                      -3.4216468433E-04  1.5040619693E-03 -6.5559753191E-05
                      -3.4699811639E-04  1.5161071990E-03  7.2595710397E-05
                       3.2304758347E-04  1.5079755301E-03  6.6619523718E-05
                       3.2369918876E-04  1.4964561772E-03 -7.3140015189E-05
                       3.4216468433E-04  1.5040619693E-03  6.5559753191E-05
                       3.4699811639E-04  1.5161071990E-03 -7.2595710397E-05
                      -3.2304758347E-04  1.5079755301E-03 -6.6619523718E-05
                      -3.2369918876E-04  1.4964561772E-03  7.3140015189E-05
-          fftalg         512
           istwfk        2    0    0    3    0    0    0    0    0    0
                         0    0    0    0    0    0    6    0    0    7
                         0    0    0    0    0    0    0    0    0    0
                         0    0    0    0    0    0    0    0    0    0
                         0    0    0    0    0    0    0    0    0    0
                       outvar_i_n : Printing only first  50 k-points.
              ixc          11
              kpt      0.00000000E+00  0.00000000E+00  0.00000000E+00
                       1.66666667E-01  0.00000000E+00  0.00000000E+00
                       3.33333333E-01  0.00000000E+00  0.00000000E+00
                       5.00000000E-01  0.00000000E+00  0.00000000E+00
                       0.00000000E+00  1.66666667E-01  0.00000000E+00
                       1.66666667E-01  1.66666667E-01  0.00000000E+00
                       3.33333333E-01  1.66666667E-01  0.00000000E+00
                       5.00000000E-01  1.66666667E-01  0.00000000E+00
                      -3.33333333E-01  1.66666667E-01  0.00000000E+00
                      -1.66666667E-01  1.66666667E-01  0.00000000E+00
                       0.00000000E+00  3.33333333E-01  0.00000000E+00
                       1.66666667E-01  3.33333333E-01  0.00000000E+00
                       3.33333333E-01  3.33333333E-01  0.00000000E+00
                       5.00000000E-01  3.33333333E-01  0.00000000E+00
                      -3.33333333E-01  3.33333333E-01  0.00000000E+00
                      -1.66666667E-01  3.33333333E-01  0.00000000E+00
                       0.00000000E+00  5.00000000E-01  0.00000000E+00
                       1.66666667E-01  5.00000000E-01  0.00000000E+00
                       3.33333333E-01  5.00000000E-01  0.00000000E+00
                       5.00000000E-01  5.00000000E-01  0.00000000E+00
                       0.00000000E+00  0.00000000E+00  1.66666667E-01
                       1.66666667E-01  0.00000000E+00  1.66666667E-01
                       3.33333333E-01  0.00000000E+00  1.66666667E-01
                       5.00000000E-01  0.00000000E+00  1.66666667E-01
                      -3.33333333E-01  0.00000000E+00  1.66666667E-01
                      -1.66666667E-01  0.00000000E+00  1.66666667E-01
                       0.00000000E+00  1.66666667E-01  1.66666667E-01
                       1.66666667E-01  1.66666667E-01  1.66666667E-01
                       3.33333333E-01  1.66666667E-01  1.66666667E-01
                       5.00000000E-01  1.66666667E-01  1.66666667E-01
                      -3.33333333E-01  1.66666667E-01  1.66666667E-01
                      -1.66666667E-01  1.66666667E-01  1.66666667E-01
                       0.00000000E+00  3.33333333E-01  1.66666667E-01
                       1.66666667E-01  3.33333333E-01  1.66666667E-01
                       3.33333333E-01  3.33333333E-01  1.66666667E-01
                       5.00000000E-01  3.33333333E-01  1.66666667E-01
                      -3.33333333E-01  3.33333333E-01  1.66666667E-01
                      -1.66666667E-01  3.33333333E-01  1.66666667E-01
                       0.00000000E+00  5.00000000E-01  1.66666667E-01
                       1.66666667E-01  5.00000000E-01  1.66666667E-01
                       3.33333333E-01  5.00000000E-01  1.66666667E-01
                       5.00000000E-01  5.00000000E-01  1.66666667E-01
                      -3.33333333E-01  5.00000000E-01  1.66666667E-01
                      -1.66666667E-01  5.00000000E-01  1.66666667E-01
                       0.00000000E+00 -3.33333333E-01  1.66666667E-01
                       1.66666667E-01 -3.33333333E-01  1.66666667E-01
                       3.33333333E-01 -3.33333333E-01  1.66666667E-01
                       5.00000000E-01 -3.33333333E-01  1.66666667E-01
                      -3.33333333E-01 -3.33333333E-01  1.66666667E-01
                      -1.66666667E-01 -3.33333333E-01  1.66666667E-01
                       outvar_i_n : Printing only first  50 k-points.
           kptopt           2
         kptrlatt        6    0    0      0    6    0      0    0    6
          kptrlen      5.75486009E+01
P           mkmem           4
            natom          12
            nband          50
            ngfft          45      45      45
             nkpt         112
            nstep         100
             nsym           2
           ntypat           2
              occ      2.000000  2.000000  2.000000  2.000000  2.000000  2.000000
                       2.000000  2.000000  2.000000  2.000000  2.000000  2.000000
                       2.000000  2.000000  2.000000  2.000000  2.000000  2.000000
                       2.000000  2.000000  2.000000  2.000000  2.000000  2.000000
                       2.000000  2.000000  2.000000  2.000000  2.000000  2.000000
                       2.000000  2.000000  2.000000  2.000000  2.000000  2.000000
                       2.000000  2.000000  2.000000  2.000000  2.000000  2.000000
                       2.000000  2.000000  2.000000  2.000000  2.000000  2.000000
                       0.000000  0.000000
        pawecutdg      2.50000000E+01 Hartree
         pawxcdev           0
          spgroup          30
           strten     -1.9264827313E-04 -1.9908524587E-04 -4.9066661035E-04
                       0.0000000000E+00 -2.5956690666E-09  0.0000000000E+00
        symmorphi           0
           symrel      1  0  0   0  1  0   0  0  1      -1  0  0   0  1  0   0  0 -1
           tolmxf      1.00000000E-05
           tolvrs      1.00000000E-18
           tsmear      4.00000000E-02 Hartree
            typat      1  1  1  1  2  2  2  2  2  2  2  2
              wtk        0.00463    0.00926    0.00926    0.00463    0.00926    0.00926
                         0.00926    0.00926    0.00926    0.00926    0.00926    0.00926
                         0.00926    0.00926    0.00926    0.00926    0.00463    0.00926
                         0.00926    0.00463    0.00926    0.00926    0.00926    0.00926
                         0.00926    0.00926    0.00926    0.00926    0.00926    0.00926
                         0.00926    0.00926    0.00926    0.00926    0.00926    0.00926
                         0.00926    0.00926    0.00926    0.00926    0.00926    0.00926
                         0.00926    0.00926    0.00926    0.00926    0.00926    0.00926
                         0.00926    0.00926
                       outvars : Printing only first  50 k-points.
           xangst      0.0000000000E+00  8.9583775201E-06  0.0000000000E+00
                       0.0000000000E+00  2.5377929584E+00  2.5377840000E+00
                       2.5377840000E+00  8.9329996800E-06  2.5377840000E+00
                       2.5377840000E+00  2.5377929330E+00  0.0000000000E+00
                       1.1989691226E+00  1.1752874867E+00  3.5513192506E+00
                       1.1989691226E+00  3.7130714867E+00  4.0620327494E+00
                       1.3388148520E+00  3.7132062684E+00  1.5242490539E+00
                       1.3388148520E+00  1.1754222684E+00  1.0135349461E+00
                       3.8765988774E+00  1.1752874867E+00  1.5242487494E+00
                       3.8765988774E+00  3.7130714867E+00  1.0135352506E+00
                       3.7367531480E+00  3.7132062684E+00  3.5513189461E+00
                       3.7367531480E+00  1.1754222684E+00  4.0620330539E+00
            xcart      0.0000000000E+00  1.6928880108E-05  0.0000000000E+00
                       0.0000000000E+00  4.7957336733E+00  4.7957167444E+00
                       4.7957167444E+00  1.6880922940E-05  4.7957167444E+00
                       4.7957167444E+00  4.7957336253E+00  0.0000000000E+00
                       2.2657232836E+00  2.2209714773E+00  6.7110207941E+00
                       2.2657232836E+00  7.0166882217E+00  7.6761294391E+00
                       2.5299934129E+00  7.0169429222E+00  2.8804132702E+00
                       2.5299934129E+00  2.2212261778E+00  1.9153034742E+00
                       7.3257102052E+00  2.2209714773E+00  2.8804126947E+00
                       7.3257102052E+00  7.0166882217E+00  1.9153040497E+00
                       7.0614400760E+00  7.0169429222E+00  6.7110202186E+00
                       7.0614400760E+00  2.2212261778E+00  7.6761300146E+00
             xred      0.0000000000E+00  1.7650000000E-06  0.0000000000E+00
                       0.0000000000E+00  5.0000176500E-01  5.0000000000E-01
                       5.0000000000E-01  1.7600000000E-06  5.0000000000E-01
                       5.0000000000E-01  5.0000176000E-01  0.0000000000E+00
                       2.3622363500E-01  2.3155782500E-01  6.9968903000E-01
                       2.3622363500E-01  7.3155782500E-01  8.0031097000E-01
                       2.6377636000E-01  7.3158438000E-01  3.0031103000E-01
                       2.6377636000E-01  2.3158438000E-01  1.9968897000E-01
                       7.6377636500E-01  2.3155782500E-01  3.0031097000E-01
                       7.6377636500E-01  7.3155782500E-01  1.9968903000E-01
                       7.3622364000E-01  7.3158438000E-01  6.9968897000E-01
                       7.3622364000E-01  2.3158438000E-01  8.0031103000E-01
            znucl       72.00000    8.00000

- Timing analysis has been suppressed with timopt=0

 Suggested references for the acknowledgment of ABINIT usage.

 Calculation completed.
.Delivered   0 WARNINGs and   0 COMMENTs to log file.